*HEADING
cubit(cube.inp): 04/08/2009: 17:24:34
*NODE
       1,   4.279787e+00,  -1.322493e-01,  -1.137224e-02
       2,   4.527241e+00,  -1.681249e-01,   2.223491e-02
       3,   4.435841e+00,   2.157741e-02,  -7.859728e-02
       4,   4.439751e+00,   1.102073e-02,   1.284453e-01
       5,   4.379274e+00,  -1.605579e-01,  -1.646477e-01
       6,   4.298805e+00,  -3.614466e-01,  -3.728599e-02
       7,   4.178564e+00,  -1.995060e-01,  -1.530131e-01
       8,   4.203920e+00,  -3.644704e-03,  -1.021339e-01
       9,   4.268598e+00,   4.008226e-02,   8.591766e-02
      10,   1.119283e+00,   1.595565e-01,   1.441710e-01
      11,   9.933081e-01,  -7.442657e-02,   1.114085e-02
      12,   8.799953e-01,   1.210206e-01,   1.867075e-01
      13,   9.531310e-01,   9.308316e-02,  -2.414925e-02
      14,   1.666667e+00,  -5.000000e-01,   5.000000e-01
      15,   1.683800e+00,  -3.287916e-01,   5.000000e-01
      16,   1.760179e+00,  -5.000000e-01,   3.497393e-01
      17,   1.586642e+00,  -5.000000e-01,   3.042254e-01
      18,   1.032222e+00,   3.402086e-01,   6.130437e-02
      19,   9.782588e-01,   9.209058e-02,  -1.745026e-01
      20,   7.916690e-01,   1.726395e-01,  -1.392972e-01
      21,   8.887364e-01,   2.930216e-01,  -1.104810e-01
      22,   1.093399e+00,   2.943037e-01,  -8.880308e-02
      23,   4.442684e+00,  -3.644281e-01,  -1.212008e-01
      24,   4.615287e+00,  -2.950169e-01,  -8.193219e-02
      25,   4.347857e+00,  -2.492459e-01,   6.630390e-02
      26,   4.520303e+00,  -5.678911e-02,  -1.894614e-01
      27,   4.378307e+00,  -1.287147e-01,   1.827435e-01
      28,   4.129840e+00,  -2.209437e-01,   1.767843e-01
      29,   4.070434e+00,  -3.236327e-01,  -1.608348e-03
      30,   4.071031e+00,  -1.067067e-01,   2.534160e-02
      31,  -1.112548e-01,  -9.365531e-02,  -2.594429e-01
      32,  -1.811699e-01,  -2.199587e-01,  -3.389240e-01
      33,  -2.422853e-01,   3.755089e-02,  -2.966258e-01
      34,  -1.714875e-01,  -9.781584e-02,  -5.000000e-01
      35,  -3.161131e-01,  -8.375486e-02,  -1.778584e-01
      36,  -2.512425e-01,  -3.384878e-01,  -1.788971e-02
      37,  -2.695532e-01,  -1.027838e-01,   1.777655e-02
      38,  -8.252142e-02,  -3.669026e-01,  -2.770924e-01
      39,  -2.974875e-02,  -3.180275e-01,  -5.250714e-02
      40,   8.557753e-02,  -1.223761e-01,  -1.871785e-01
      41,   4.807596e-02,  -1.966345e-01,  -3.449838e-01
      42,   3.879352e-02,  -9.760998e-02,  -5.000000e-01
      43,  -3.226676e+00,   1.199307e-01,  -3.766658e-02
      44,  -3.104779e+00,  -9.013199e-02,   5.836964e-02
      45,  -2.962506e+00,   9.595846e-02,   3.254376e-02
      46,  -3.211256e+00,   1.572262e-01,   1.538666e-01
      47,  -3.068695e+00,   2.126990e-01,  -6.724401e-02
      48,  -3.278057e+00,  -1.085711e-01,  -3.054597e-02
      49,  -3.104631e+00,   1.605819e-03,  -1.235122e-01
      50,  -3.284055e+00,   3.068379e-01,   1.427915e-02
      51,  -3.453594e+00,  -2.571126e-01,  -9.880847e-03
      52,  -3.535583e+00,  -3.138549e-01,   2.369077e-01
      53,  -3.419784e+00,  -4.073471e-02,   9.623157e-02
      54,  -3.624718e+00,  -9.691879e-02,   1.588636e-01
      55,  -1.354565e+00,   4.010991e-03,   5.000000e-01
      56,  -1.357550e+00,   1.560439e-01,   3.415325e-01
      57,  -1.512244e+00,   1.932941e-01,   5.000000e-01
      58,  -1.321236e+00,   2.725405e-01,   5.000000e-01
      59,  -3.350139e+00,   1.882197e-01,  -2.046946e-01
      60,  -3.164194e+00,   3.398281e-01,  -2.074864e-01
      61,  -3.074442e+00,   1.680484e-01,  -2.560277e-01
      62,   3.673990e+00,   3.094869e-01,  -2.365707e-01
      63,   3.881886e+00,   2.906533e-01,  -4.309665e-02
      64,   3.822307e+00,   3.635955e-01,  -3.147299e-01
      65,   3.923022e+00,   5.000000e-01,  -1.201429e-01
      66,  -4.774417e+00,   3.420648e-01,   1.163840e-01
      67,  -4.615672e+00,   1.808241e-01,   5.160750e-02
      68,  -4.854720e+00,   1.232700e-01,   2.099754e-01
      69,  -4.870627e+00,   2.493812e-01,   7.090388e-02
      70,   3.541859e+00,   2.471318e-01,  -2.952723e-01
      71,   3.540607e+00,   3.478107e-01,  -5.000000e-01
      72,   3.737793e+00,   2.410452e-01,  -5.000000e-01
      73,   3.540844e+00,   5.000000e-01,  -3.494497e-01
      74,   3.540490e+00,   5.000000e-01,  -1.197095e-01
      75,   3.403771e+00,   3.649421e-01,  -1.800161e-01
      76,   3.507900e+00,   2.682363e-01,  -1.110083e-01
      77,   3.742314e+00,   1.653122e-01,  -3.499378e-01
      78,   3.731865e+00,   1.608753e-01,  -1.561982e-01
      79,   2.674774e+00,   5.122185e-02,  -8.675724e-02
      80,   2.647417e+00,   1.717493e-01,   1.298741e-01
      81,   2.857795e+00,   1.020656e-01,   1.845175e-02
      82,   2.570679e+00,   3.187109e-01,  -2.096353e-02
      83,   2.437486e+00,   1.666398e-01,  -1.206792e-01
      84,   2.458065e+00,   3.321264e-02,   1.025145e-01
      85,   2.942244e+00,   1.287058e-02,  -9.607984e-02
      86,   2.716673e+00,  -8.823915e-02,   5.912197e-02
      87,   2.537783e+00,   5.324746e-02,  -2.983701e-01
      88,   2.763276e+00,  -3.993117e-02,  -3.504157e-01
      89,   2.646718e+00,   1.635799e-01,  -3.474709e-01
      90,  -4.272813e+00,  -3.612089e-01,  -2.096214e-01
      91,  -4.112081e+00,  -2.081515e-01,  -1.714851e-01
      92,  -4.327160e+00,  -2.221550e-01,  -3.109549e-01
      93,  -4.272352e+00,  -3.038413e-01,  -7.709008e-02
      94,  -3.684596e+00,  -3.357143e-01,  -1.777535e-01
      95,  -3.671434e+00,  -3.083167e-01,   9.824580e-04
      96,  -3.624865e+00,  -1.504052e-01,  -5.307423e-02
      97,  -3.540490e+00,  -5.000000e-01,  -1.197095e-01
      98,  -3.535704e+00,   1.049789e-01,  -6.999982e-02
      99,  -3.483166e+00,  -9.058402e-02,  -1.299942e-01
     100,  -3.763580e+00,  -1.881451e-01,  -3.259877e-01
     101,  -3.715212e+00,  -3.660137e-01,  -3.623784e-01
     102,  -3.737793e+00,  -2.410452e-01,  -5.000000e-01
     103,  -3.535081e+00,  -2.519012e-01,  -2.901204e-01
     104,  -3.726315e+00,  -1.232972e-01,  -1.562949e-01
     105,  -3.845173e+00,  -1.197100e-01,   1.392068e-01
     106,  -3.805408e+00,   1.840750e-02,  -8.145741e-02
     107,  -2.964333e+00,  -3.833104e-03,   2.104799e-01
     108,  -2.987588e+00,   1.080413e-01,   3.755190e-01
     109,  -2.934785e+00,   1.747094e-01,   1.833707e-01
     110,  -3.130326e+00,   8.183230e-02,   2.647781e-01
     111,  -3.129257e+00,  -7.360912e-02,   3.284520e-01
     112,  -2.981156e+00,  -1.257256e-01,   3.537620e-01
     113,  -4.324385e+00,   2.429276e-01,   3.578878e-01
     114,  -4.271216e+00,   3.222117e-01,   5.000000e-01
     115,  -4.432331e+00,   2.375467e-01,   5.000000e-01
     116,  -4.271238e+00,   1.114321e-01,   5.000000e-01
     117,  -2.952809e+00,  -1.497800e-01,   9.020153e-02
     118,   3.136259e+00,  -2.781102e-03,  -1.575890e-01
     119,   3.315181e+00,  -6.003489e-03,  -9.975868e-02
     120,   3.115924e+00,   9.475599e-02,   2.329197e-02
     121,   3.100185e+00,  -1.138905e-01,  -1.590393e-02
     122,   3.243334e+00,   1.942333e-01,  -1.628156e-01
     123,   3.270140e+00,  -1.997348e-02,  -3.042585e-01
     124,  -3.940321e+00,  -2.050695e-01,  -1.361520e-01
     125,  -4.109670e+00,  -3.553634e-01,  -1.375574e-01
     126,  -4.141713e+00,  -3.052682e-01,   1.324485e-02
     127,  -4.021462e+00,   5.286560e-03,  -1.091635e-01
     128,  -4.054040e+00,  -1.655650e-01,   1.087936e-01
     129,  -3.939406e+00,  -9.253313e-02,  -2.823536e-01
     130,  -4.500684e+00,  -1.628314e-01,   1.754276e-01
     131,  -4.584273e+00,  -2.092686e-02,   3.564325e-01
     132,  -4.554111e+00,  -2.444873e-01,   3.393210e-01
     133,  -4.409530e+00,  -1.308054e-01,   3.481176e-01
     134,  -4.245284e+00,   1.687577e-01,   2.047736e-01
     135,  -4.008820e+00,   1.936353e-01,   1.460360e-01
     136,  -4.256722e+00,   3.110144e-01,   5.080332e-02
     137,  -4.283148e+00,   3.365899e-01,   2.329488e-01
     138,  -3.981108e+00,  -2.587753e-01,  -3.219459e-01
     139,  -3.651286e+00,   1.629148e-01,  -2.644077e-01
     140,  -3.561296e+00,   3.289439e-01,  -4.935303e-02
     141,  -3.735973e+00,   2.790940e-01,  -5.877678e-03
     142,  -4.099375e+00,  -5.000000e-01,  -4.260695e-04
     143,  -4.271629e+00,  -5.000000e-01,  -1.104587e-01
     144,  -3.371152e+00,   3.428146e-01,  -1.370213e-01
     145,  -3.519152e+00,   3.228039e-01,  -2.478816e-01
     146,  -3.617506e+00,   1.796217e-01,   1.313257e-01
     147,  -3.921907e+00,  -2.406643e-01,   3.600247e-01
     148,  -4.110475e+00,  -2.375940e-01,   5.000000e-01
     149,  -3.941285e+00,  -3.482115e-01,   5.000000e-01
     150,  -3.923022e+00,  -1.201429e-01,   5.000000e-01
     151,  -1.096150e+00,   1.631841e-01,  -5.075401e-02
     152,  -1.165647e+00,   1.810846e-01,   1.255688e-01
     153,  -9.067652e-01,   1.034527e-01,   5.266709e-02
     154,  -9.238462e-01,   2.874430e-01,   8.503257e-02
     155,  -1.103479e+00,   3.454484e-01,   1.093424e-01
     156,  -1.181566e+00,   7.355159e-03,   1.028180e-01
     157,  -1.358709e+00,   1.464608e-01,  -1.408575e-01
     158,  -9.004898e-01,  -5.535968e-02,  -5.605701e-02
     159,  -1.182795e+00,  -2.374084e-02,  -1.040091e-01
     160,  -9.955297e-01,   1.313649e-01,  -1.904432e-01
     161,  -1.170223e+00,   3.165981e-01,  -8.545994e-02
     162,  -4.107151e+00,  -3.439229e-01,   3.503923e-01
     163,  -4.125956e+00,  -1.097988e-01,   3.401480e-01
     164,  -3.935792e+00,  -3.232641e-01,   2.276888e-01
     165,  -7.160014e-01,  -1.498230e-01,  -2.069610e-02
     166,  -6.712452e-01,   8.221922e-02,   5.924336e-02
     167,  -7.983382e-01,  -1.266581e-01,   1.825374e-01
     168,  -5.720624e-01,  -4.159135e-02,  -8.689064e-02
     169,  -5.946210e-01,  -2.957186e-01,   4.195867e-02
     170,  -5.412794e-01,  -1.770504e-01,  -1.531560e-01
     171,  -5.963356e-01,  -1.046760e-01,   1.651996e-01
     172,   4.190661e+00,   2.074087e-01,  -8.765435e-02
     173,   4.286547e+00,   1.118662e-01,  -1.979470e-01
     174,   4.000502e+00,  -6.401719e-02,  -1.969133e-01
     175,  -4.357231e+00,   5.813193e-02,  -1.848481e-01
     176,  -4.213389e+00,   5.570044e-02,   6.915519e-02
     177,  -4.262665e+00,   1.777933e-01,  -1.202797e-01
     178,  -4.416600e+00,   1.117840e-01,   2.346772e-02
     179,  -4.579854e+00,   2.072519e-02,  -3.570356e-01
     180,  -4.505318e+00,  -9.352950e-02,  -2.349131e-01
     181,  -4.441246e+00,   1.159086e-01,  -3.741224e-01
     182,  -4.509605e+00,   1.634749e-01,  -1.773722e-01
     183,  -3.914552e+00,  -3.067279e-01,  -3.306471e-04
     184,  -3.923022e+00,  -5.000000e-01,  -1.201429e-01
     185,  -4.314980e+00,   2.265748e-01,  -3.283186e-01
     186,  -4.561894e+00,  -4.574056e-02,  -4.837183e-02
     187,  -4.308487e+00,  -3.038097e-02,  -3.601752e-01
     188,   1.725617e+00,  -5.299141e-02,   3.095628e-01
     189,   1.912019e+00,   4.317720e-02,   5.000000e-01
     190,   1.735362e+00,   1.549686e-01,   5.000000e-01
     191,   1.710592e+00,  -7.820313e-02,   5.000000e-01
     192,  -4.203507e+00,  -3.896957e-02,  -1.954782e-01
     193,  -4.249860e+00,  -2.204423e-01,   3.355834e-01
     194,  -4.335986e+00,   2.699926e-02,   2.545831e-01
     195,  -4.425299e+00,   2.085239e-01,   2.087426e-01
     196,  -4.227420e+00,  -8.660235e-02,   2.140785e-01
     197,  -4.149979e+00,   3.202156e-02,   2.941368e-01
     198,  -4.159914e+00,   1.728203e-01,   3.650875e-01
     199,  -4.160334e+00,   3.228860e-01,   3.653315e-01
     200,  -3.235210e+00,  -3.045089e-01,  -3.165867e-02
     201,  -3.235177e+00,  -1.472555e-01,   1.663389e-01
     202,  -3.361480e+00,  -3.148791e-01,   1.274439e-01
     203,  -3.286078e+00,   4.031492e-02,  -2.809950e-01
     204,  -3.162100e+00,  -5.643570e-02,  -2.975647e-01
     205,  -3.157698e+00,  -1.994883e-01,  -8.921275e-02
     206,  -3.339172e+00,  -3.350998e-01,  -1.757879e-01
     207,  -3.333152e+00,  -1.459089e-01,  -3.070175e-01
     208,  -3.539505e+00,   5.530215e-02,   2.971057e-01
     209,  -3.540490e+00,  -1.197095e-01,   5.000000e-01
     210,  -3.347571e+00,  -1.489998e-02,   2.942809e-01
     211,  -3.348084e+00,  -2.800906e-03,   5.000000e-01
     212,   3.891447e+00,   1.377376e-01,   2.201009e-01
     213,   3.733912e+00,  -3.800482e-02,   4.649669e-02
     214,   3.662568e+00,   1.637683e-01,   1.822554e-01
     215,   3.794980e+00,   1.309097e-01,   3.563908e-02
     216,   3.533204e+00,   9.520613e-02,   2.460191e-02
     217,   3.750159e+00,   3.138922e-01,   1.591089e-01
     218,   3.998939e+00,   1.957658e-01,   1.087620e-01
     219,   3.694593e+00,   3.001036e-01,  -2.484279e-02
     220,  -1.230010e+00,  -1.606003e-01,   1.947214e-03
     221,  -1.248852e+00,  -1.660955e-01,  -1.741043e-01
     222,  -1.452395e+00,  -8.437190e-02,  -4.566028e-02
     223,  -1.172502e+00,  -3.282074e-01,   2.115484e-01
     224,  -1.078073e+00,  -1.959934e-01,   4.309286e-02
     225,  -1.176164e+00,  -1.568791e-01,   2.037798e-01
     226,  -1.308313e+00,  -3.113538e-01,   1.373355e-01
     227,  -1.449547e+00,  -1.653665e-01,   1.157315e-01
     228,  -4.109347e+00,  -5.000000e-01,   2.368990e-01
     229,  -3.923348e+00,  -5.000000e-01,   1.170162e-01
     230,  -3.941587e+00,  -5.000000e-01,   3.493926e-01
     231,  -1.279755e+00,  -2.841276e-01,  -5.029313e-02
     232,  -2.771995e+00,  -1.739861e-01,   1.975790e-02
     233,  -2.791209e+00,   2.320093e-02,   1.187611e-01
     234,  -2.818164e+00,  -1.193857e-01,   3.127238e-01
     235,  -2.653586e+00,  -3.032129e-01,  -1.722791e-01
     236,  -2.915804e+00,  -1.749926e-01,  -1.524036e-01
     237,  -2.650150e+00,  -1.125667e-01,  -1.572420e-01
     238,  -2.541508e+00,  -8.381493e-02,   9.234852e-02
     239,  -2.665603e+00,  -1.950742e-01,   3.061248e-01
     240,  -2.664562e+00,   9.452207e-02,   1.774494e-02
     241,  -2.832265e+00,  -9.510371e-03,  -9.794866e-02
     242,  -2.640022e+00,  -2.962199e-01,  -8.950231e-03
     243,   4.556224e+00,  -2.357741e-01,  -3.170988e-01
     244,   4.319323e+00,  -3.267305e-01,  -2.464705e-01
     245,   3.612511e+00,  -1.998607e-01,   1.531193e-01
     246,   3.572556e+00,  -1.048695e-01,  -3.674545e-02
     247,   3.707960e+00,  -3.005215e-01,   3.768744e-02
     248,   3.824504e+00,  -1.806262e-01,   1.577762e-01
     249,   3.751060e+00,  -1.507068e-02,  -2.339818e-01
     250,   2.415500e+00,  -7.189898e-02,  -3.563990e-01
     251,   2.466149e+00,   7.828825e-02,  -5.000000e-01
     252,   2.639441e+00,  -3.617031e-02,  -5.000000e-01
     253,   2.469762e+00,  -1.904530e-01,  -5.000000e-01
     254,  -2.311778e+00,  -1.695973e-02,   2.894407e-01
     255,  -2.475245e+00,  -1.873308e-01,   2.963660e-01
     256,  -2.587186e+00,  -2.319398e-02,   3.136127e-01
     257,  -2.550401e+00,   1.302294e-01,   1.674554e-01
     258,  -2.483084e+00,   8.722129e-02,  -1.089681e-02
     259,  -2.663759e+00,   2.969957e-01,   5.497972e-02
     260,  -2.464053e+00,   3.028563e-01,  -5.573647e-02
     261,  -2.645502e+00,   3.207492e-01,   3.614080e-01
     262,  -2.748127e+00,   1.870501e-01,   1.606616e-01
     263,  -2.639441e+00,   1.425538e-01,   3.453903e-01
     264,  -4.600834e+00,   3.514886e-01,  -4.082195e-02
     265,  -4.617186e+00,   5.000000e-01,   1.151761e-01
     266,  -4.407247e+00,   3.353823e-01,   3.974213e-02
     267,  -4.442543e+00,   5.000000e-01,   7.295539e-04
     268,  -3.125000e+00,   5.000000e-01,   5.000000e-01
     269,  -3.333333e+00,   5.000000e-01,   5.000000e-01
     270,  -3.142541e+00,   5.000000e-01,   3.508002e-01
     271,  -3.140940e+00,   3.476649e-01,   5.000000e-01
     272,  -4.563411e+00,   3.208124e-01,   2.193347e-01
     273,  -4.791777e+00,   2.689267e-01,  -1.169416e-01
     274,  -4.607131e+00,   3.469341e-01,  -2.391590e-01
     275,  -4.367301e+00,   3.638306e-01,  -1.618596e-01
     276,  -4.618241e+00,   5.000000e-01,  -1.164829e-01
     277,  -4.746273e+00,   3.416792e-01,   3.389708e-01
     278,   4.860425e+00,  -6.615217e-02,  -1.827473e-02
     279,   4.827908e+00,   6.905276e-02,   6.164450e-02
     280,   4.713132e+00,  -6.049387e-02,  -1.094031e-01
     281,   4.660424e+00,  -1.284358e-01,   1.990457e-01
     282,   4.655548e+00,   1.283012e-01,   1.054442e-01
     283,   4.461391e+00,   1.785886e-01,   1.436766e-01
     284,   4.550619e+00,   2.332092e-01,   3.503557e-01
     285,   4.604060e+00,   3.562201e-01,   2.424193e-01
     286,   4.475163e+00,   2.434018e-02,   3.300225e-01
     287,   4.577408e+00,   3.573239e-01,   2.513550e-02
     288,   4.674207e+00,   1.343464e-01,  -1.332248e-01
     289,   4.496295e+00,   1.689626e-01,  -1.572312e-01
     290,  -4.195862e+00,  -1.012261e-01,   9.609628e-03
     291,  -4.379836e+00,  -2.878324e-01,   3.574529e-02
     292,  -4.399068e+00,  -1.005135e-01,  -6.709670e-03
     293,  -4.413657e+00,  -3.377481e-01,  -1.391834e-01
     294,   4.841189e+00,  -4.476949e-02,   2.306690e-01
     295,   4.737849e+00,   1.040318e-01,   3.124495e-01
     296,  -4.537841e+00,   6.434405e-02,   2.279113e-01
     297,  -4.661726e+00,  -1.383534e-01,   2.462581e-01
     298,  -4.807560e+00,  -8.717829e-02,   2.833045e-01
     299,  -4.734173e+00,   3.917314e-02,   8.371504e-02
     300,  -4.733636e+00,  -3.510947e-01,   3.553147e-01
     301,  -4.617186e+00,  -1.151761e-01,   5.000000e-01
     302,  -4.120844e+00,   1.817800e-01,  -1.935923e-01
     303,  -3.956745e+00,   2.589150e-01,  -9.328104e-02
     304,  -3.982728e+00,   5.605448e-02,  -3.251241e-01
     305,  -3.895910e+00,   7.320008e-02,   1.255650e-01
     306,   1.506916e-01,   1.780866e-01,  -1.582428e-03
     307,  -5.066676e-02,   1.060802e-01,   1.680003e-01
     308,  -3.031395e-02,   3.046252e-02,  -7.731641e-02
     309,   1.156165e-01,   3.676441e-02,   1.629844e-01
     310,   3.088433e-01,   1.808747e-01,  -1.787087e-01
     311,   1.976549e-01,   2.863290e-02,  -7.789489e-02
     312,   9.320201e-02,   1.807154e-01,  -1.988908e-01
     313,   9.979220e-02,   3.313476e-01,   1.246558e-01
     314,   5.181865e-02,  -1.041658e-01,   4.664463e-02
     315,  -1.316519e-02,   3.006562e-01,  -9.043419e-02
     316,   1.977841e+00,   5.596344e-02,  -3.148734e-02
     317,   1.904542e+00,  -5.945894e-02,  -2.860464e-01
     318,   1.729703e+00,  -1.016130e-01,  -1.759529e-01
     319,   1.877661e+00,   1.249024e-01,  -1.540581e-01
     320,   2.071986e+00,   2.053932e-02,  -2.962857e-01
     321,   2.079792e+00,  -2.263320e-02,   1.068818e-01
     322,   2.151261e+00,   1.390058e-01,  -1.031006e-01
     323,   2.264538e+00,  -1.428926e-01,  -1.077277e-01
     324,   2.280039e+00,   4.923544e-02,  -1.814576e-02
     325,   1.932663e+00,  -1.490194e-01,  -1.131926e-01
     326,  -4.372835e+00,  -3.515316e-01,   3.634045e-01
     327,  -4.270712e+00,  -3.210638e-01,   5.000000e-01
     328,  -4.432151e+00,  -2.373405e-01,   5.000000e-01
     329,  -4.271629e+00,  -1.104587e-01,   5.000000e-01
     330,  -4.099375e+00,  -4.260695e-04,   5.000000e-01
     331,   1.935994e+00,   2.038379e-02,   3.195214e-01
     332,   1.802393e+00,   1.487356e-01,   1.828636e-01
     333,   1.889633e+00,  -1.255245e-01,   1.463926e-01
     334,   1.702898e+00,  -4.093385e-02,   7.988635e-02
     335,  -1.885402e+00,  -9.649204e-02,  -1.955559e-02
     336,  -1.829195e+00,   7.261971e-02,   1.599105e-01
     337,  -1.932090e+00,  -5.321648e-02,   2.523943e-01
     338,  -1.668731e+00,  -9.270636e-02,   1.012981e-01
     339,  -3.961496e+00,   4.779652e-02,   3.186831e-01
     340,  -2.017024e+00,   1.728026e-01,   1.646193e-01
     341,  -1.889684e+00,   1.200622e-01,  -2.265217e-02
     342,  -2.089936e+00,   3.965995e-02,   8.161356e-02
     343,  -1.920213e+00,   1.368145e-01,   3.399646e-01
     344,   1.329969e+00,  -1.834819e-01,  -3.097012e-01
     345,   1.531283e+00,  -8.126521e-02,  -5.000000e-01
     346,   1.532747e+00,  -2.415424e-01,  -2.932207e-01
     347,   1.381921e+00,  -2.745487e-01,  -5.000000e-01
     348,  -1.764663e+00,   2.717426e-01,  -7.309955e-02
     349,  -1.742481e+00,   3.071452e-01,   1.182048e-01
     350,  -1.627494e+00,   1.082272e-01,   9.448667e-02
     351,  -1.727697e+00,   2.249791e-01,   2.683792e-01
     352,  -1.707781e+00,   1.558783e-02,   3.112432e-01
     353,  -2.888934e+00,   1.359181e-01,  -1.762994e-01
     354,  -2.835527e+00,   3.036023e-01,   3.382336e-02
     355,  -3.034778e+00,   3.065105e-01,   4.334701e-02
     356,  -4.699090e+00,  -1.706904e-01,   6.276731e-02
     357,  -4.602572e+00,  -2.099982e-01,  -1.072403e-01
     358,  -4.722046e+00,  -1.713801e-02,  -1.213924e-01
     359,   1.535008e+00,   1.015725e-01,   7.757246e-03
     360,   1.475238e+00,  -3.543361e-02,  -9.907906e-02
     361,   1.540642e+00,  -1.292229e-01,   1.722121e-01
     362,  -9.610937e-01,  -1.022932e-01,   1.616795e-01
     363,   8.997899e-01,  -1.815853e-01,   1.402424e-01
     364,   1.080748e+00,  -3.146729e-01,   1.528209e-01
     365,   1.120242e+00,  -8.077841e-02,   1.781423e-01
     366,   1.157105e+00,   1.044706e-01,  -8.943529e-02
     367,   1.715105e+00,   2.350300e-01,  -1.250965e-01
     368,   1.693057e+00,   2.453781e-01,  -3.177651e-01
     369,   1.735362e+00,   5.000000e-01,  -1.549686e-01
     370,   1.902036e+00,   3.157559e-01,  -3.395050e-01
     371,   7.757651e-01,  -6.980193e-02,  -1.724675e-03
     372,   2.984500e+00,   3.972418e-01,   9.453218e-02
     373,   2.830365e+00,   3.214673e-01,   2.673879e-02
     374,   2.981022e+00,   4.040292e-01,  -1.128935e-01
     375,   3.088290e+00,   3.384524e-01,  -4.866076e-02
     376,   3.160217e+00,   5.000000e-01,   1.143935e-01
     377,   3.117544e+00,   2.884519e-01,   1.039648e-01
     378,   1.699493e+00,  -2.695627e-01,  -3.547224e-01
     379,   1.825877e+00,  -4.031346e-01,  -3.555942e-01
     380,   1.685765e+00,  -5.000000e-01,  -3.304040e-01
     381,   1.759154e+00,  -3.502355e-01,  -5.000000e-01
     382,   3.154735e+00,   3.718433e-01,  -2.429636e-01
     383,   2.982868e+00,   1.991203e-01,  -1.897465e-01
     384,   3.302492e+00,   2.859016e-01,  -1.325749e-02
     385,   3.160612e+00,   5.000000e-01,  -1.212750e-01
     386,  -2.570444e+00,   1.546796e-01,  -1.345316e-01
     387,  -1.373532e+00,   1.031518e-02,   3.086752e-01
     388,  -2.294945e+00,   1.073964e-01,   1.547062e-01
     389,   1.348230e+00,  -1.547827e-01,   9.511003e-02
     390,   1.509303e+00,  -1.685377e-01,  -1.068913e-01
     391,   1.600604e+00,  -3.109859e-01,   4.471638e-02
     392,   1.405939e+00,  -3.149872e-01,  -5.533629e-02
     393,  -1.877413e+00,  -2.065122e-01,   3.196301e-01
     394,  -1.898865e+00,  -2.563153e-01,   1.460145e-01
     395,  -2.082425e+00,  -1.935379e-01,   3.044242e-01
     396,  -2.161761e+00,  -1.443157e-01,   1.476785e-01
     397,  -2.163730e+00,   5.981109e-02,   3.393501e-01
     398,  -2.171119e+00,  -3.480664e-01,   2.509125e-01
     399,  -2.333092e+00,  -1.469957e-01,   3.447252e-01
     400,  -2.377979e+00,  -1.420904e-01,   1.322234e-01
     401,  -2.300480e+00,  -1.952272e-03,  -8.104331e-03
     402,  -2.030953e+00,  -3.144637e-01,   6.354999e-02
     403,   1.051527e+00,  -1.619937e-01,  -1.712765e-01
     404,   1.194206e+00,  -1.300486e-01,  -6.278881e-02
     405,   1.001378e+00,  -2.888117e-01,  -2.915763e-02
     406,   1.199604e+00,  -3.185661e-01,  -2.299040e-02
     407,   1.214352e+00,  -3.496893e-01,  -1.734696e-01
     408,   1.062687e+00,  -2.721927e-02,  -3.226003e-01
     409,   1.290033e+00,   5.753133e-03,  -2.516471e-01
     410,   9.887043e-01,  -3.382930e-01,  -2.495905e-01
     411,   8.928837e-01,  -2.284171e-01,  -3.435101e-01
     412,   1.102075e+00,  -2.528161e-01,  -3.658739e-01
     413,  -2.751096e+00,   1.849348e-01,  -6.650748e-02
     414,  -2.654569e+00,   3.439349e-01,  -1.391360e-01
     415,  -2.718812e+00,   5.219419e-02,  -2.953627e-01
     416,  -2.677911e+00,   2.062745e-01,  -3.438881e-01
     417,  -2.296877e+00,   1.557101e-01,  -9.256916e-02
     418,  -2.476918e+00,   4.235191e-02,  -2.749403e-01
     419,   5.516853e-01,  -5.000000e-01,   3.037397e-01
     420,   5.349553e-01,  -2.391185e-01,   3.559988e-01
     421,   4.930751e-01,  -2.992786e-01,   1.433466e-01
     422,   4.285780e-01,  -3.753729e-01,   3.570786e-01
     423,   1.656919e+00,  -3.478597e-01,  -2.113992e-01
     424,   1.512244e+00,  -5.000000e-01,  -1.932941e-01
     425,   2.867880e-01,  -2.249759e-01,   3.701743e-01
     426,   4.235975e-01,  -1.795515e-01,   1.850460e-01
     427,   2.643280e-01,  -3.549165e-01,   2.637109e-01
     428,   2.885293e-01,  -3.004639e-01,   5.000000e-01
     429,   4.696510e-01,  -5.000000e-01,   1.035934e-01
     430,   3.388443e-01,  -5.000000e-01,   3.013542e-01
     431,   2.983601e+00,   6.939163e-03,   1.254208e-01
     432,   3.265567e+00,   1.319389e-01,   1.616314e-01
     433,   3.215002e+00,  -1.495581e-01,   8.631975e-02
     434,   2.785568e+00,   1.475963e-02,   3.047124e-01
     435,   2.858250e+00,  -1.764846e-01,   6.768718e-02
     436,   2.985202e+00,   2.065729e-01,   2.011131e-01
     437,   1.541291e+00,  -3.802884e-02,  -3.210577e-01
     438,   1.735362e+00,  -1.549686e-01,  -5.000000e-01
     439,  -2.407125e+00,  -1.450491e-01,  -9.733605e-02
     440,  -2.526395e+00,  -2.869890e-01,   6.144472e-02
     441,   4.881749e+00,   3.252328e-01,  -2.233714e-01
     442,   4.738724e+00,   3.719318e-01,  -3.102664e-01
     443,   4.806209e+00,   2.713999e-01,  -5.664117e-02
     444,   4.577408e+00,  -2.226462e-02,  -3.533460e-01
     445,   4.600168e+00,   2.463365e-01,  -3.685355e-01
     446,   4.870029e+00,   1.120799e-01,  -2.268517e-01
     447,   4.742777e+00,   1.143053e-01,  -3.648997e-01
     448,  -4.617186e+00,  -5.000000e-01,  -1.151761e-01
     449,  -4.577294e+00,  -3.540130e-01,   2.174431e-02
     450,  -4.554334e+00,  -3.275473e-01,  -2.353139e-01
     451,  -4.762016e+00,  -3.636106e-01,  -1.040931e-01
     452,  -2.495614e-01,   1.229514e-01,   1.694898e-01
     453,  -1.198643e-01,  -7.283846e-02,   1.062610e-01
     454,  -2.600631e-01,  -3.762233e-02,   2.931569e-01
     455,  -2.004322e-01,  -1.905362e-01,   1.810757e-01
     456,  -8.141252e-02,  -4.060258e-02,   3.218745e-01
     457,  -2.465281e-01,  -2.400599e-01,   3.500206e-01
     458,  -7.595399e-03,  -1.603973e-01,   1.945747e-01
     459,  -1.490453e-01,  -3.027722e-01,   2.949321e-01
     460,  -1.599763e-01,  -3.103707e-01,   1.012589e-01
     461,  -4.195273e-01,  -1.825526e-01,   1.469831e-01
     462,  -4.143046e-01,  -3.360468e-01,   4.587080e-02
     463,  -3.312110e-01,  -3.564698e-01,   2.416632e-01
     464,  -4.579373e-01,  -2.892922e-01,   3.591434e-01
     465,  -5.494773e-01,  -3.626421e-01,   2.819022e-01
     466,  -4.450118e-01,   4.663957e-02,   1.770890e-01
     467,  -4.364611e-01,  -5.055549e-02,   3.120512e-01
     468,  -3.732823e+00,  -1.435362e-01,   3.237231e-01
     469,  -3.393874e+00,  -1.902814e-01,   3.431156e-01
     470,  -3.732812e+00,  -3.338973e-01,   1.655385e-01
     471,  -4.110475e+00,  -5.000000e-01,  -2.375940e-01
     472,   2.813010e+00,  -1.049346e-01,  -1.744078e-01
     473,   2.988749e+00,  -1.638511e-01,  -1.449107e-01
     474,   2.967955e+00,   1.116866e-02,  -2.846075e-01
     475,   2.879191e+00,   8.889159e-02,  -3.015615e-01
     476,   2.931865e+00,  -1.944824e-01,  -3.548583e-01
     477,   5.943770e-01,   1.135529e-01,   1.660506e-01
     478,   8.084441e-01,  -2.601807e-02,   3.391263e-01
     479,   6.574022e-01,   1.973767e-01,   3.508741e-01
     480,   6.503632e-01,  -1.743895e-01,   1.872524e-01
     481,   1.052795e+00,   2.395339e-01,   3.561569e-01
     482,   9.720341e-01,   3.661926e-01,   2.508657e-01
     483,   1.054988e+00,   1.594313e-02,   3.477699e-01
     484,   4.179668e+00,   1.756981e-01,   1.681166e-01
     485,   4.148910e+00,   4.438131e-04,   2.476161e-01
     486,   4.102405e+00,   1.373987e-01,   3.384524e-01
     487,   4.092637e+00,   3.356023e-01,   3.318483e-01
     488,   4.097076e+00,   3.171051e-01,   3.962707e-03
     489,   4.148458e+00,   3.700440e-01,   1.701903e-01
     490,  -1.319588e+00,   3.314196e-01,   1.622662e-01
     491,  -1.402075e+00,   1.405206e-01,   1.403524e-01
     492,  -1.193849e+00,   3.837276e-02,   3.153463e-01
     493,  -1.173021e+00,   1.964714e-01,   3.432799e-01
     494,  -9.949183e-01,   2.184382e-01,   3.014287e-01
     495,  -9.542683e-01,   3.225851e-01,  -1.194907e-01
     496,  -1.431424e+00,   3.127491e-01,  -4.173487e-02
     497,   4.276690e+00,   5.246351e-02,   3.020812e-01
     498,   4.336619e+00,   3.027425e-01,   2.349503e-01
     499,   4.363578e+00,   2.675067e-01,   1.331439e-02
     500,   4.447192e+00,   3.578626e-01,   1.449676e-01
     501,   3.530386e+00,   7.834755e-02,   2.504863e-01
     502,   3.771105e+00,   2.386475e-02,   2.776993e-01
     503,   3.549349e+00,   3.137025e-01,   5.964039e-02
     504,   3.742623e+00,   1.991659e-01,   3.329015e-01
     505,   3.543562e+00,   3.014730e-01,   2.490196e-01
     506,   3.732812e+00,   1.693263e-03,   5.000000e-01
     507,   3.540490e+00,   1.197095e-01,   5.000000e-01
     508,   3.540844e+00,   3.494497e-01,   5.000000e-01
     509,   3.923022e+00,   1.201429e-01,   5.000000e-01
     510,   3.713943e+00,   3.603206e-01,   3.661041e-01
     511,   3.923396e+00,   2.261006e-01,   3.532069e-01
     512,   3.737226e+00,   2.421121e-01,   5.000000e-01
     513,   3.174595e+00,  -8.906671e-02,   3.102557e-01
     514,   3.181539e+00,   6.745201e-02,   3.499675e-01
     515,   1.666667e+00,   5.000000e-01,  -5.000000e-01
     516,   1.759154e+00,   5.000000e-01,  -3.502355e-01
     517,   1.582681e+00,   5.000000e-01,  -3.088997e-01
     518,   1.683800e+00,   3.287916e-01,  -5.000000e-01
     519,   3.443049e+00,  -1.638258e-01,   1.241754e-01
     520,   3.339925e+00,   8.146688e-03,   2.914208e-01
     521,   6.414199e-01,   9.112836e-02,  -6.610792e-02
     522,   8.155186e-01,  -8.842628e-02,  -1.650245e-01
     523,   5.472063e-01,  -5.793847e-02,  -1.670115e-01
     524,   8.084036e-01,   5.172003e-02,  -3.308443e-01
     525,   7.649808e-01,   1.381637e-01,   1.620234e-02
     526,   6.004361e-01,   3.027033e-01,   6.342608e-02
     527,  -4.456441e+00,  -3.648643e-01,  -3.540788e-01
     528,   4.370573e-01,   3.008800e-01,  -9.699719e-02
     529,   5.299912e-01,   1.838322e-01,  -2.095101e-01
     530,   4.299499e-01,   1.160438e-01,  -3.919021e-02
     531,   6.533459e-01,   3.229834e-01,  -1.000792e-01
     532,   2.983076e+00,  -1.730877e-01,   2.033170e-01
     533,   2.665928e+00,  -1.816650e-01,   2.080484e-01
     534,   2.811169e+00,  -9.578622e-02,   5.000000e-01
     535,   2.910574e+00,  -1.241716e-01,   3.465852e-01
     536,   2.941228e+00,   1.873625e-02,   3.274797e-01
     537,   2.927752e+00,   1.742567e-01,   3.603674e-01
     538,   2.693154e+00,   1.864799e-01,   3.732986e-01
     539,   2.812082e+00,   1.323004e-01,   5.000000e-01
     540,   2.583874e+00,   4.713902e-02,   3.011101e-01
     541,   2.649008e+00,  -1.015396e-01,   3.662558e-01
     542,   2.639441e+00,   3.617031e-02,   5.000000e-01
     543,  -8.326837e-01,  -1.749256e-01,  -2.073353e-01
     544,  -8.221606e-01,   4.687475e-02,   3.093365e-01
     545,  -7.545107e-01,  -3.438837e-01,   2.387778e-01
     546,  -6.780788e-01,  -2.179236e-01,   3.347211e-01
     547,  -9.119999e-01,  -2.420179e-01,   3.101090e-01
     548,  -9.899643e-01,  -3.451785e-01,   2.028036e-01
     549,  -8.214695e-01,  -3.098416e-01,   6.241833e-02
     550,   1.943623e-01,  -1.825747e-01,   1.917930e-01
     551,   7.636114e-02,  -2.324190e-01,   3.613309e-01
     552,   3.821597e-02,  -3.763889e-01,   2.678621e-01
     553,   6.778455e-02,  -2.983537e-01,   9.335753e-02
     554,  -3.732812e+00,   5.000000e-01,   1.693263e-03
     555,  -3.746152e+00,   3.393653e-01,  -1.694930e-01
     556,  -3.541620e+00,   5.000000e-01,  -1.175014e-01
     557,  -3.348084e+00,   5.000000e-01,   2.800906e-03
     558,  -3.540490e+00,   5.000000e-01,   1.197095e-01
     559,  -3.534672e+00,  -4.162486e-02,  -3.148690e-01
     560,  -1.992081e+00,  -3.627394e-01,   3.455989e-01
     561,  -4.442543e+00,  -5.000000e-01,  -7.295539e-04
     562,  -1.686015e+00,  -2.894407e-01,   1.112985e-01
     563,  -1.856682e+00,  -3.102525e-01,  -3.549430e-02
     564,  -4.271238e+00,  -5.000000e-01,   1.114321e-01
     565,  -1.738626e+00,  -2.677912e-01,   3.578701e-01
     566,  -1.894954e+00,  -5.000000e-01,   2.164174e-01
     567,  -1.775476e+00,  -3.695591e-01,   2.052402e-01
     568,  -2.035920e-01,   8.885998e-02,  -6.912231e-02
     569,  -3.177771e-01,   1.910837e-01,  -1.816220e-01
     570,  -4.115279e-01,   1.078769e-01,  -1.274098e-02
     571,  -3.655768e-01,   3.042661e-01,  -5.287951e-02
     572,  -1.898521e-01,   2.958552e-01,  -1.006033e-01
     573,  -6.008041e-02,   3.047340e-01,   6.307203e-02
     574,  -4.158718e+00,  -3.565400e-01,   1.672164e-01
     575,  -1.139803e-01,   1.747372e-01,  -2.029610e-01
     576,  -7.280855e-01,   1.378033e-01,  -1.792607e-01
     577,  -8.497232e-01,  -1.322399e-02,  -3.058106e-01
     578,  -8.724012e-01,   3.055369e-01,  -3.520007e-01
     579,  -6.430081e-01,  -5.852263e-02,  -3.196301e-01
     580,   3.946778e+00,   6.040157e-02,  -3.197983e-01
     581,   4.027689e+00,   1.991431e-01,  -1.422465e-01
     582,   3.892102e+00,   7.072939e-02,  -7.984969e-02
     583,   2.265660e+00,   1.344893e-01,  -3.201574e-01
     584,   2.086661e+00,   2.129570e-01,  -3.170709e-01
     585,   2.431072e+00,   2.342334e-01,  -3.412158e-01
     586,   2.282553e+00,   2.129198e-01,  -5.000000e-01
     587,   2.199434e+00,   3.326360e-01,  -3.327036e-01
     588,   2.091303e+00,   7.771686e-02,  -5.000000e-01
     589,   2.280933e+00,  -5.559345e-02,  -5.000000e-01
     590,   4.099375e+00,   5.000000e-01,  -4.260695e-04
     591,   4.045211e+00,   3.690704e-01,  -1.790735e-01
     592,   2.083333e-01,  -5.000000e-01,   5.000000e-01
     593,   4.166667e-01,  -5.000000e-01,   5.000000e-01
     594,   3.732812e+00,   5.000000e-01,  -1.693263e-03
     595,   3.348084e+00,  -1.647994e-01,   3.342671e-01
     596,   3.541620e+00,  -1.175014e-01,   5.000000e-01
     597,   3.348084e+00,   2.800906e-03,   5.000000e-01
     598,   3.344737e+00,  -2.406696e-01,   5.000000e-01
     599,   4.554215e+00,  -3.349499e-01,   2.359202e-01
     600,   4.756234e+00,  -3.566070e-01,   1.247330e-01
     601,   4.804677e+00,  -5.000000e-01,   2.871014e-04
     602,   4.617186e+00,  -5.000000e-01,   1.151761e-01
     603,   4.412068e+00,   2.772125e-02,  -3.001643e-01
     604,   4.618241e+00,  -5.000000e-01,  -1.164829e-01
     605,  -2.174349e+00,  -1.217875e-01,  -9.040447e-02
     606,  -2.097412e+00,   1.202822e-01,  -1.893280e-01
     607,  -3.426573e+00,   1.686540e-01,   1.463572e-01
     608,  -7.708742e-01,   5.000000e-01,   3.113213e-01
     609,  -7.836336e-01,   2.791900e-01,   3.607340e-01
     610,  -7.594774e-01,   3.147229e-01,   1.388541e-01
     611,  -6.614079e-01,   3.699252e-01,   3.658992e-01
     612,  -9.001402e-01,   3.647372e-01,   2.638475e-01
     613,  -4.375485e-01,   3.739713e-01,   3.537810e-01
     614,  -5.115357e-01,   3.032255e-01,   1.465557e-01
     615,  -5.516853e-01,   5.000000e-01,   3.037397e-01
     616,  -7.132179e-01,   2.973016e-01,   5.000000e-01
     617,  -5.604638e-01,   2.336328e-01,   3.785549e-01
     618,  -6.869331e-01,   5.000000e-01,   1.066154e-01
     619,   4.852470e-01,  -8.406022e-02,   4.979431e-02
     620,   3.784499e-01,  -5.285864e-02,   2.958299e-01
     621,   3.626332e-01,   1.110342e-01,   1.616908e-01
     622,   2.795428e-01,  -8.863997e-02,   4.561792e-02
     623,   3.708608e-01,  -1.293690e-01,  -1.791772e-01
     624,   1.545600e+00,   2.933466e-02,   3.217354e-01
     625,   1.730503e+00,   3.687303e-01,   2.608394e-01
     626,   1.524760e+00,   2.254191e-01,   2.869624e-01
     627,   1.708720e+00,   2.616057e-01,   3.957346e-01
     628,   1.876029e+00,   2.983145e-01,  -3.901951e-02
     629,   1.897429e+00,   3.419004e-01,   1.509660e-01
     630,   1.925861e+00,   2.043576e-01,   3.024049e-01
     631,   3.963953e+00,   2.413863e-01,  -3.405115e-01
     632,   3.941587e+00,   3.493926e-01,  -5.000000e-01
     633,   3.941285e+00,   5.000000e-01,  -3.482115e-01
     634,   3.923348e+00,   1.170162e-01,  -5.000000e-01
     635,  -7.132879e-01,   3.335401e-01,  -3.191345e-02
     636,  -1.184245e+00,   1.228604e-01,  -1.955926e-01
     637,  -1.118907e+00,   2.823701e-01,  -3.436706e-01
     638,  -1.030160e+00,  -4.437688e-02,   3.108639e-01
     639,   3.908577e+00,  -3.030232e-01,  -9.533131e-03
     640,   3.801152e+00,  -1.603379e-01,  -9.493554e-02
     641,   3.919401e+00,  -3.521284e-01,  -2.241680e-01
     642,   3.739210e+00,  -3.429227e-01,  -1.565383e-01
     643,   3.732812e+00,  -5.000000e-01,   1.693263e-03
     644,   3.773165e+00,  -3.428513e-01,   1.838183e-01
     645,   3.923348e+00,  -5.000000e-01,  -1.170162e-01
     646,   3.923022e+00,  -5.000000e-01,   1.201429e-01
     647,   4.099375e+00,  -5.000000e-01,   4.260695e-04
     648,   4.040802e+00,  -3.633356e-01,   1.805788e-01
     649,  -2.622777e-01,   3.349942e-01,   3.832345e-02
     650,   4.214908e+00,   2.614198e-01,  -3.290786e-01
     651,   4.107852e+00,   1.194793e-01,  -3.620048e-01
     652,   4.271629e+00,   5.000000e-01,  -1.104587e-01
     653,   4.266334e+00,   3.379655e-01,  -2.016094e-01
     654,   4.099375e+00,   9.999956e-02,  -8.534867e-05
     655,   4.204842e+00,  -1.893622e-01,   3.425693e-01
     656,   4.279200e+00,  -3.339263e-01,   2.062125e-01
     657,   3.972970e+00,  -2.527674e-01,   3.267792e-01
     658,   4.172097e+00,  -3.408352e-01,   3.541249e-01
     659,   1.983745e+00,   3.567423e-01,  -1.661397e-01
     660,   1.683982e+00,   6.917288e-02,  -2.902083e-01
     661,   1.764801e+00,  -2.934540e-01,  -6.034341e-02
     662,   1.164406e+00,   2.100956e-01,  -3.288111e-01
     663,   9.546078e-01,   1.946455e-01,  -3.584056e-01
     664,   1.040213e+00,   3.494933e-01,  -2.442679e-01
     665,   8.136396e-01,   3.351939e-01,   4.843379e-02
     666,  -1.685765e+00,   3.304040e-01,   5.000000e-01
     667,  -1.544276e+00,   2.095771e-01,   3.347122e-01
     668,  -1.716105e+00,   8.059009e-02,   5.000000e-01
     669,  -1.519055e+00,  -3.605507e-03,   3.405893e-01
     670,  -2.960958e+00,   3.195669e-01,  -1.272593e-01
     671,  -2.980575e+00,   3.376495e-01,  -3.270858e-01
     672,  -2.943387e+00,   3.862438e-02,  -2.961997e-01
     673,  -3.160612e+00,   1.212750e-01,  -5.000000e-01
     674,  -3.159314e+00,   2.523817e-01,  -3.627129e-01
     675,  -2.923535e+00,   1.743869e-01,  -3.598762e-01
     676,  -3.860504e-01,  -2.265950e-01,  -3.383575e-01
     677,  -2.778984e-01,  -3.686443e-01,  -2.425894e-01
     678,  -4.210199e-01,  -2.709934e-01,  -8.350514e-02
     679,  -4.698539e-02,   5.134955e-02,  -2.932270e-01
     680,  -4.446495e-01,   5.578642e-02,  -3.171386e-01
     681,  -6.623689e-02,   3.420244e-01,   2.490044e-01
     682,   4.169441e-02,   1.879782e-01,   3.619656e-01
     683,  -1.737067e-01,   2.624048e-01,   3.539062e-01
     684,   1.919801e-01,  -4.208132e-02,   3.361220e-01
     685,   2.574217e-01,   1.802298e-01,   3.455926e-01
     686,   2.290012e+00,  -1.882728e-02,  -2.568066e-01
     687,   2.535182e+00,  -5.588631e-02,  -1.654651e-01
     688,   2.149081e+00,   1.725181e-01,   1.249024e-01
     689,   4.845774e+00,  -2.115901e-01,   3.934258e-01
     690,   4.801667e+00,  -2.338811e-01,   5.000000e-01
     691,   5.000000e+00,  -3.000000e-01,   5.000000e-01
     692,   5.000000e+00,  -1.000000e-01,   5.000000e-01
     693,   3.345228e+00,  -3.310865e-01,  -1.423799e-01
     694,   3.097817e+00,  -3.256014e-01,  -2.444860e-01
     695,   3.344737e+00,  -5.000000e-01,  -2.406696e-01
     696,   3.160217e+00,  -5.000000e-01,  -1.143935e-01
     697,   2.817607e+00,   3.317206e-01,   2.255076e-01
     698,   3.105246e+00,   3.404868e-01,   2.411422e-01
     699,   2.407598e+00,   3.278274e-01,   6.130563e-02
     700,   2.310801e+00,   1.981771e-01,   3.144865e-01
     701,   3.527243e+00,   3.944879e-02,  -2.378844e-01
     702,   3.348084e+00,   5.000000e-01,  -2.800906e-03
     703,   4.280027e+00,  -2.129317e-01,  -3.494181e-01
     704,   4.101298e+00,  -3.344694e-01,  -3.362807e-01
     705,   4.266060e+00,  -5.605068e-02,  -2.998115e-01
     706,   4.413017e+00,  -1.326116e-01,  -3.446512e-01
     707,  -4.128497e+00,   2.884684e-01,  -3.764193e-03
     708,  -4.143229e+00,   3.619896e-01,  -1.802545e-01
     709,  -3.964301e+00,   3.648396e-01,  -2.330815e-01
     710,  -4.163512e+00,   3.683914e-01,  -3.282308e-01
     711,  -4.237716e+00,   8.862859e-02,  -3.031231e-01
     712,  -2.139323e+00,  -3.507268e-01,  -3.367087e-01
     713,  -2.309534e+00,  -3.060306e-01,  -3.365165e-01
     714,  -2.087604e+00,  -3.325820e-01,  -5.000000e-01
     715,  -2.291667e+00,  -5.000000e-01,  -5.000000e-01
     716,  -3.923475e+00,   2.451366e-01,  -3.520196e-01
     717,  -4.099375e+00,   1.253197e-01,  -3.748931e-01
     718,  -4.743074e+00,   1.213607e-01,   3.115087e-01
     719,  -4.433599e+00,   1.015561e-01,   3.789140e-01
     720,   7.669280e-01,   3.516618e-01,   2.463416e-01
     721,   3.343210e+00,  -3.200215e-01,   1.324106e-01
     722,   3.154029e+00,  -3.617273e-01,   2.153859e-01
     723,   3.125543e+00,  -2.378377e-01,   3.421356e-01
     724,   7.900252e-01,  -3.085298e-01,  -4.171843e-02
     725,   3.012872e+00,  -3.019756e-01,   3.284596e-02
     726,   3.161664e+00,  -3.092429e-01,  -6.161668e-02
     727,   3.160612e+00,  -5.000000e-01,   1.212750e-01
     728,   2.983106e+00,  -5.000000e-01,   8.954394e-03
     729,  -2.825563e+00,   5.121553e-02,   3.074462e-01
     730,  -3.101484e+00,   2.480308e-01,   3.298467e-01
     731,  -3.906038e+00,  -3.792636e-01,  -2.179306e-01
     732,   2.953187e+00,  -3.537032e-01,  -1.328841e-01
     733,  -3.791074e+00,   4.786859e-02,  -3.084577e-01
     734,  -4.786198e+00,   1.211812e-01,  -2.793146e-01
     735,  -4.042927e+00,  -6.476890e-02,   2.255949e-01
     736,  -4.300300e+00,  -1.741821e-01,   1.308566e-01
     737,  -2.374034e+00,  -3.547527e-01,   2.063895e-01
     738,  -1.024281e+00,  -6.130627e-02,  -2.889002e-01
     739,  -5.380045e-01,   2.019552e-01,  -1.754244e-01
     740,  -6.796909e-01,   2.230850e-01,  -3.395575e-01
     741,   1.477874e+00,  -3.216912e-01,   1.855935e-01
     742,   1.703264e+00,  -2.326466e-01,   2.936702e-01
     743,   1.498810e+00,  -3.339573e-01,   3.761499e-01
     744,   1.317063e+00,  -1.553820e-01,   3.319014e-01
     745,   1.315276e+00,   6.200992e-02,   2.197368e-01
     746,   1.760677e+00,  -3.271743e-01,   1.380866e-01
     747,   1.497341e+00,  -1.835703e-01,   5.000000e-01
     748,  -3.100747e+00,  -2.438715e-01,  -3.351175e-01
     749,  -2.896408e+00,  -3.474506e-01,  -3.540250e-01
     750,  -3.042440e+00,  -3.786200e-01,  -1.578603e-01
     751,  -2.939735e+00,  -1.194293e-01,  -3.497127e-01
     752,  -2.778127e+00,  -2.183301e-01,  -3.442371e-01
     753,  -2.805940e+00,  -5.119593e-02,  -3.285121e-01
     754,  -2.797580e+00,  -3.663418e-01,  -2.196691e-01
     755,  -2.808183e+00,  -3.719817e-01,  -4.892565e-02
     756,  -2.820660e+00,   2.300267e-01,   3.540516e-01
     757,   3.126924e+00,  -7.135275e-02,  -3.346174e-01
     758,   3.146959e+00,   9.364330e-02,  -3.161112e-01
     759,   3.237458e+00,  -1.660177e-01,  -1.915079e-01
     760,   3.500675e+00,  -8.287103e-02,   3.076231e-01
     761,  -1.587343e+00,   3.037035e-01,   8.668391e-02
     762,   1.665950e+00,   3.328497e-01,   2.459559e-02
     763,   1.794795e+00,   4.032971e-01,   3.700301e-01
     764,   1.894954e+00,   5.000000e-01,   2.164174e-01
     765,   1.683800e+00,   5.000000e-01,   3.287916e-01
     766,   1.497341e+00,   5.000000e-01,   1.835703e-01
     767,   1.710592e+00,   5.000000e-01,   7.820313e-02
     768,  -1.674882e+00,   1.288512e-01,  -1.236683e-01
     769,  -2.815759e+00,   3.505112e-01,  -2.334153e-01
     770,  -4.614599e+00,  -3.684053e-01,   2.408780e-01
     771,  -4.860288e+00,  -2.540457e-01,  -4.447551e-02
     772,   8.017783e-02,  -3.003188e-01,   5.000000e-01
     773,  -1.287022e-01,  -3.001021e-01,   5.000000e-01
     774,  -4.856023e+00,  -5.204435e-02,   6.823216e-02
     775,   4.426463e+00,  -3.708672e-01,   1.206021e-01
     776,   3.879352e-02,   9.760998e-02,   5.000000e-01
     777,  -2.281854e+00,  -5.473760e-02,   5.000000e-01
     778,  -2.097978e+00,  -1.945114e-01,   5.000000e-01
     779,  -1.714875e-01,   9.781584e-02,   5.000000e-01
     780,   2.948436e+00,  -3.388329e-01,   3.526025e-01
     781,   2.922739e+00,  -3.576824e-01,   1.713106e-01
     782,  -2.456829e+00,   2.299104e-01,   2.957565e-01
     783,  -2.137582e+00,   2.945844e-01,  -5.761415e-02
     784,  -2.342699e+00,   3.099143e-01,   3.877991e-02
     785,  -1.263471e+00,   3.439501e-01,  -2.177200e-01
     786,  -1.286060e+00,   1.356488e-01,  -3.697374e-01
     787,  -1.381046e+00,   3.305497e-01,  -3.363793e-01
     788,  -1.542204e+00,   2.261499e-01,  -3.112027e-01
     789,  -1.508971e+00,   5.088551e-02,  -3.011095e-01
     790,   4.271629e+00,  -5.000000e-01,   1.104587e-01
     791,   4.110475e+00,  -5.000000e-01,   2.375940e-01
     792,   4.442543e+00,  -5.000000e-01,   7.295539e-04
     793,  -1.354565e+00,  -2.406200e-03,  -3.000000e-01
     794,  -1.201941e+00,  -4.042682e-02,  -3.163053e-01
     795,  -1.048918e+00,  -1.614411e-01,  -1.827536e-01
     796,  -1.127730e+00,  -2.951389e-01,  -7.541535e-02
     797,  -1.946643e+00,  -1.762678e-01,  -1.958265e-01
     798,  -2.300578e+00,  -1.179329e-02,  -2.763982e-01
     799,  -2.217792e+00,  -3.097329e-01,  -7.407948e-02
     800,  -2.097851e+00,  -2.163867e-01,  -3.042920e-01
     801,   2.098429e+00,  -2.103137e-01,   3.002718e-01
     802,   2.183450e+00,  -3.490179e-01,   2.086984e-01
     803,   2.122667e+00,  -3.867117e-02,   3.249205e-01
     804,   1.923966e+00,  -3.435214e-01,   2.316654e-01
     805,   1.431157e+00,   1.531105e-01,  -1.567539e-01
     806,   1.295048e+00,   3.909854e-02,   5.606459e-03
     807,   2.983106e+00,  -8.954394e-03,  -5.000000e-01
     808,   1.291290e+00,   2.759379e-01,  -3.623209e-02
     809,   2.802988e+00,   3.678679e-01,  -1.071777e-01
     810,   2.811779e+00,   3.657918e-01,  -2.543852e-01
     811,   2.746754e+00,   1.889797e-01,  -1.574285e-01
     812,   3.103415e+00,   2.064692e-01,  -3.585378e-01
     813,   3.001083e+00,   3.613157e-01,  -3.458834e-01
     814,   2.877862e+00,   1.949389e-01,  -3.605532e-01
     815,  -5.873329e-01,   3.041776e-01,  -3.199880e-02
     816,  -4.442543e+00,  -7.295539e-04,   5.000000e-01
     817,  -2.086563e+00,  -5.000000e-01,   3.333660e-01
     818,  -1.875000e+00,  -5.000000e-01,   5.000000e-01
     819,  -1.909577e+00,   3.118969e-01,   1.907992e-01
     820,  -2.088122e+00,   2.099906e-01,   3.269056e-01
     821,  -2.240162e+00,   3.435025e-01,   2.392254e-01
     822,  -4.443559e+00,  -1.359996e-01,  -3.695692e-01
     823,  -4.529935e+00,   2.370847e-01,  -3.381287e-01
     824,  -4.740860e+00,  -1.200710e-01,  -3.494946e-01
     825,  -4.594360e+00,  -2.518804e-01,  -3.758484e-01
     826,  -3.734832e-01,   1.898799e-01,   3.480582e-01
     827,  -6.272103e-01,   3.919084e-02,   3.359134e-01
     828,  -1.524200e+00,  -2.101221e-01,   3.163388e-01
     829,  -3.348084e+00,   1.648001e-01,   3.342671e-01
     830,  -3.160217e+00,  -5.000000e-01,   1.143935e-01
     831,  -3.348084e+00,  -5.000000e-01,  -2.800906e-03
     832,  -2.990677e+00,  -2.877932e-01,  -9.617215e-03
     833,  -3.160612e+00,  -5.000000e-01,  -1.212750e-01
     834,  -3.139798e+00,  -2.916971e-01,   7.285868e-02
     835,  -2.091303e+00,  -5.000000e-01,   7.771686e-02
     836,  -3.544070e+00,   2.513259e-01,   3.002680e-01
     837,  -1.825592e+00,  -3.998326e-01,   3.655907e-01
     838,  -3.393427e+00,   3.655262e-01,   1.568734e-01
     839,  -3.769959e+00,   1.474876e-01,   3.137961e-01
     840,  -3.947727e+00,   2.424623e-01,   3.125544e-01
     841,  -3.931987e+00,   3.447783e-01,   5.839619e-02
     842,   3.917364e+00,   3.414301e-01,   2.082685e-01
     843,   3.939790e+00,  -2.443501e-02,   1.043618e-01
     844,   3.923348e+00,   5.000000e-01,   1.170162e-01
     845,  -2.280933e+00,  -5.000000e-01,  -5.559345e-02
     846,  -2.282553e+00,  -5.000000e-01,   2.129198e-01
     847,   4.442543e+00,   3.748185e-01,  -1.255473e-01
     848,   2.616498e+00,  -1.820430e-01,  -7.259884e-02
     849,   2.780263e+00,  -3.294642e-01,  -2.140854e-01
     850,   2.812599e+00,  -2.964912e-01,  -4.071195e-02
     851,   3.400989e+00,   2.044284e-01,   3.540098e-01
     852,   3.375737e+00,   3.016045e-01,   1.765529e-01
     853,   3.332179e+00,   3.369578e-01,   3.286721e-01
     854,   3.713340e+00,  -1.013828e-01,   3.624410e-01
     855,   9.825314e-01,  -2.157115e-01,   3.574567e-01
     856,  -2.287350e+00,  -3.218074e-01,   5.000000e-01
     857,  -2.083333e+00,  -5.000000e-01,   5.000000e-01
     858,   7.440988e-01,  -3.286259e-01,   1.401122e-01
     859,   9.132534e-01,  -5.000000e-01,   1.302701e-01
     860,  -8.017783e-02,  -5.000000e-01,   3.003188e-01
     861,  -4.618067e-02,  -1.021795e-01,   5.000000e-01
     862,   2.591555e+00,  -3.571621e-01,  -3.602118e-01
     863,   2.483360e+00,  -5.000000e-01,  -3.344653e-01
     864,   2.651026e+00,  -5.000000e-01,  -2.193981e-01
     865,   2.583421e+00,  -3.623437e-01,  -1.388680e-01
     866,   1.716105e+00,  -5.000000e-01,  -8.059009e-02
     867,   2.459515e+00,  -2.994973e-01,  -2.256410e-01
     868,   1.823063e+00,  -3.653650e-01,   3.604559e-01
     869,   1.913658e+00,  -5.000000e-01,   4.136493e-02
     870,   1.954925e+00,  -3.061558e-01,   2.392924e-02
     871,   2.299866e+00,  -1.523663e-01,   1.682545e-01
     872,   2.416613e+00,  -3.615433e-02,   3.132992e-01
     873,   2.255368e+00,   5.146209e-03,   2.525385e-01
     874,   2.639441e+00,  -5.000000e-01,   3.617031e-02
     875,   2.811169e+00,  -5.000000e-01,  -9.578622e-02
     876,   3.934398e+00,  -5.928192e-02,   3.206556e-01
     877,  -2.639441e+00,  -3.617031e-02,   5.000000e-01
     878,  -2.983106e+00,  -8.954394e-03,   5.000000e-01
     879,   2.198775e+00,   3.341179e-01,  -6.589486e-02
     880,   2.021437e+00,   2.824712e-01,   7.402069e-02
     881,  -1.196071e+00,   5.000000e-01,  -8.782199e-02
     882,  -1.022435e+00,   5.000000e-01,  -7.133500e-02
     883,  -1.104541e+00,   3.577235e-01,   4.243321e-01
     884,  -9.132534e-01,   5.000000e-01,   1.302701e-01
     885,  -1.163667e+00,   5.000000e-01,   1.639683e-01
     886,  -1.354565e+00,   5.000000e-01,  -4.010991e-03
     887,  -3.716841e+00,   3.285114e-01,   1.872348e-01
     888,   2.498048e+00,  -2.937891e-01,   5.560687e-02
     889,   2.668854e+00,  -1.885207e-01,  -3.340446e-01
     890,   2.696822e+00,  -3.070055e-01,   5.081850e-02
     891,   2.483450e+00,   3.155562e-01,   3.547318e-01
     892,  -2.645319e+00,   3.592534e-01,  -3.416387e-01
     893,  -2.651026e+00,   5.000000e-01,  -2.193981e-01
     894,  -2.483360e+00,   5.000000e-01,  -3.344653e-01
     895,  -2.708333e+00,   5.000000e-01,  -5.000000e-01
     896,   4.166667e+00,  -5.000000e-01,   5.000000e-01
     897,   4.109347e+00,  -2.368990e-01,   5.000000e-01
     898,   3.941587e+00,  -3.493926e-01,   5.000000e-01
     899,   4.825064e+00,  -2.492605e-01,   9.126618e-02
     900,   4.782099e+00,  -1.241147e-01,  -2.695412e-01
     901,   4.622262e+00,  -2.505072e-01,   3.821749e-01
     902,   4.618241e+00,  -1.164829e-01,   5.000000e-01
     903,   4.830196e+00,  -2.777916e-01,  -1.306252e-01
     904,   3.532404e+00,  -3.137828e-01,  -4.419797e-02
     905,   3.540490e+00,  -5.000000e-01,   1.197095e-01
     906,   3.523396e+00,  -3.524862e-01,   2.487073e-01
     907,   3.518545e+00,  -2.353562e-01,   3.474146e-01
     908,   3.045392e-01,  -3.541129e-01,   5.030514e-02
     909,   3.845837e-01,  -2.867399e-01,  -3.858645e-02
     910,   5.890816e-01,  -2.888534e-01,  -5.783732e-02
     911,   5.625426e-01,   4.147187e-02,  -3.548988e-01
     912,   4.586031e-01,  -1.887552e-01,  -3.449294e-01
     913,   3.741142e-01,   5.140898e-02,  -3.065339e-01
     914,   6.899827e-01,   3.638142e-01,  -2.333117e-01
     915,   5.491675e-01,   2.515851e-01,  -3.626484e-01
     916,   4.559212e-01,   3.638066e-01,  -2.518930e-01
     917,   7.404572e-01,   2.353840e-01,  -3.658955e-01
     918,   3.732812e+00,  -1.693263e-03,  -5.000000e-01
     919,   3.436953e+00,  -1.648943e-01,  -1.955604e-01
     920,   3.704724e+00,  -1.715508e-01,  -3.091373e-01
     921,   2.091323e+00,  -1.753751e-01,  -2.863701e-01
     922,   2.239341e+00,  -2.216840e-01,  -2.984276e-01
     923,   2.149026e+00,  -3.208604e-01,  -6.644173e-02
     924,   7.584045e-01,  -2.415285e-01,   3.438995e-01
     925,   6.401820e-01,  -3.657348e-01,   2.517406e-01
     926,   5.464540e-01,  -4.661492e-02,   3.262532e-01
     927,   3.735496e+00,  -3.264504e-01,   3.351724e-01
     928,  -3.716163e-01,   3.564198e-01,  -2.766100e-01
     929,   2.637375e-01,   3.547116e-01,  -2.649179e-01
     930,   3.478407e-01,   2.934553e-01,  -3.692133e-01
     931,   5.000000e+00,   1.252666e-02,  -3.047790e-01
     932,   5.000000e+00,  -1.000000e-01,  -5.000000e-01
     933,   4.804677e+00,  -2.871014e-04,  -5.000000e-01
     934,   5.000000e+00,   1.000000e-01,  -5.000000e-01
     935,   1.618084e-01,   4.959074e-02,  -3.204324e-01
     936,   1.255877e-01,   2.318867e-01,  -3.664644e-01
     937,  -4.432151e+00,   5.000000e-01,   2.373405e-01
     938,  -4.452886e+00,   3.528921e-01,   3.570394e-01
     939,  -4.609070e+00,   2.364424e-01,   3.814808e-01
     940,  -1.591512e-01,   3.645235e-01,  -3.257323e-01
     941,  -2.772390e-01,   2.161028e-01,  -3.783311e-01
     942,   3.160612e+00,  -1.212750e-01,  -5.000000e-01
     943,   3.160217e+00,   1.143935e-01,  -5.000000e-01
     944,  -4.867150e-02,   3.015666e-01,  -3.721417e-01
     945,   6.923737e-02,   3.585542e-01,  -2.251542e-01
     946,   3.170059e+00,  -2.509213e-01,  -3.719470e-01
     947,   3.372830e+00,  -1.559061e-01,  -3.657083e-01
     948,  -1.287022e-01,   3.001021e-01,  -5.000000e-01
     949,  -3.388443e-01,   3.013542e-01,  -5.000000e-01
     950,  -2.083333e-01,   5.000000e-01,  -5.000000e-01
     951,   1.472777e-01,  -3.628684e-01,  -2.354789e-01
     952,   2.350996e-01,  -1.961521e-01,  -3.443876e-01
     953,   1.797076e-01,  -2.885202e-01,  -9.052396e-02
     954,   1.898334e+00,  -2.222397e-01,  -3.208737e-01
     955,   1.940695e+00,  -3.403787e-01,  -1.848962e-01
     956,   2.916667e+00,   5.000000e-01,  -5.000000e-01
     957,   3.140940e+00,   3.476649e-01,  -5.000000e-01
     958,   2.972803e+00,   2.313751e-01,  -5.000000e-01
     959,   5.301126e-01,  -3.416255e-01,  -2.508360e-01
     960,   6.695685e-01,  -1.919903e-01,  -3.381533e-01
     961,   3.201346e-01,  -3.592762e-01,  -2.513708e-01
     962,   1.022435e+00,  -5.000000e-01,  -7.133500e-02
     963,   1.163667e+00,  -5.000000e-01,   1.639683e-01
     964,   1.176956e+00,  -2.264540e-01,   3.342115e-01
     965,   1.285818e+00,  -3.734984e-01,   1.576194e-01
     966,  -3.794465e+00,   3.681954e-01,   3.351459e-01
     967,  -4.047667e+00,   3.698544e-01,   1.827637e-01
     968,  -3.923022e+00,   5.000000e-01,   1.201429e-01
     969,   1.912019e+00,  -4.317720e-02,  -5.000000e-01
     970,   4.390715e-01,   2.910440e-01,   3.643984e-01
     971,   5.459622e-01,   3.497930e-01,   2.562319e-01
     972,   3.361688e-01,   3.558433e-01,   2.362742e-01
     973,   3.796941e-01,   3.088054e-01,   6.309606e-02
     974,  -4.375000e+00,  -5.000000e-01,  -5.000000e-01
     975,  -4.583333e+00,  -5.000000e-01,  -5.000000e-01
     976,  -4.599865e+00,  -3.479677e-01,  -5.000000e-01
     977,   2.479503e+00,  -2.395225e-01,   2.995738e-01
     978,   2.367179e+00,  -3.352629e-01,   6.038387e-02
     979,   2.282553e+00,  -2.129198e-01,   5.000000e-01
     980,   2.621670e+00,   3.332758e-01,  -2.061347e-01
     981,   2.469762e+00,   5.000000e-01,  -1.904530e-01
     982,   2.361211e+00,   3.392869e-01,  -2.077545e-01
     983,   3.691395e+00,  -3.656331e-01,  -3.537974e-01
     984,   3.737793e+00,  -5.000000e-01,  -2.410452e-01
     985,   3.941285e+00,  -3.482115e-01,  -5.000000e-01
     986,   3.941587e+00,  -5.000000e-01,  -3.493926e-01
     987,   3.750000e+00,  -5.000000e-01,  -5.000000e-01
     988,   3.540490e+00,  -1.197095e-01,  -5.000000e-01
     989,   3.381917e+00,   1.198396e-01,  -3.320354e-01
     990,  -3.923022e+00,   1.201429e-01,  -5.000000e-01
     991,  -3.923348e+00,  -1.170162e-01,  -5.000000e-01
     992,  -4.099375e+00,   4.260695e-04,  -5.000000e-01
     993,  -4.099375e+00,  -1.246805e-01,  -3.751062e-01
     994,   1.896308e+00,  -5.000000e-01,  -2.177133e-01
     995,   1.557499e+00,  -3.629190e-01,  -3.641107e-01
     996,   1.582681e+00,  -3.088997e-01,  -5.000000e-01
     997,   8.378255e-01,   3.723200e-01,  -3.490217e-01
     998,   1.666667e+00,  -5.000000e-01,  -5.000000e-01
     999,   1.875000e+00,  -5.000000e-01,  -5.000000e-01
    1000,  -2.929643e+00,   3.647322e-01,   1.814399e-01
    1001,  -2.691454e+00,   3.475360e-01,   2.065994e-01
    1002,  -2.639441e+00,   5.000000e-01,   3.617031e-02
    1003,  -2.470013e+00,   5.000000e-01,   1.901134e-01
    1004,  -2.466770e+00,   5.000000e-01,  -7.891771e-02
    1005,  -1.900300e+00,   2.990870e-02,  -2.791243e-01
    1006,  -2.103565e+00,  -5.777156e-03,  -3.387906e-01
    1007,  -2.186909e+00,   3.315878e-01,  -3.486980e-01
    1008,  -2.008371e+00,   3.470909e-01,  -3.605368e-01
    1009,  -2.097978e+00,   1.945114e-01,  -5.000000e-01
    1010,  -2.271922e+00,   2.057700e-01,  -3.090501e-01
    1011,  -7.553332e-01,  -2.227284e-01,  -3.493043e-01
    1012,  -5.969375e-01,  -3.207618e-01,  -3.465725e-01
    1013,  -7.269260e-01,  -3.572386e-01,  -2.374545e-01
    1014,  -4.782029e-01,  -3.700838e-01,  -2.672899e-01
    1015,  -6.620231e-01,  -3.189701e-01,  -1.107693e-01
    1016,   4.101063e+00,  -1.058589e-01,  -3.623367e-01
    1017,   4.110475e+00,  -2.375940e-01,  -5.000000e-01
    1018,   3.923022e+00,  -1.201429e-01,  -5.000000e-01
    1019,   4.099375e+00,  -4.260695e-04,  -5.000000e-01
    1020,   4.432151e+00,   2.373405e-01,   5.000000e-01
    1021,   4.442543e+00,   7.295539e-04,   5.000000e-01
    1022,   4.289065e+00,   1.914921e-01,   3.680336e-01
    1023,  -2.788117e+00,  -3.113343e-01,   9.958357e-02
    1024,  -3.081306e+00,  -3.169047e-01,   2.042805e-01
    1025,  -2.827227e+00,  -2.596477e-01,   3.657829e-01
    1026,  -2.861189e+00,  -3.434317e-01,   2.335468e-01
    1027,  -3.164736e+00,   3.692550e-01,   2.387639e-01
    1028,  -1.655764e+00,  -5.875150e-02,  -3.286278e-01
    1029,  -1.688285e+00,  -2.886593e-01,  -3.063044e-01
    1030,  -1.671808e+00,  -1.957728e-01,  -1.024064e-01
    1031,  -1.735362e+00,  -5.000000e-01,  -1.549686e-01
    1032,  -1.460760e+00,  -3.146028e-01,  -3.710897e-02
    1033,  -1.505121e+00,  -2.573895e-01,  -2.046718e-01
    1034,  -1.414893e+00,  -1.666461e-01,  -3.400784e-01
    1035,  -2.376568e+00,  -3.549696e-01,  -1.245825e-01
    1036,  -2.483892e+00,  -2.167256e-01,  -2.992735e-01
    1037,   4.390075e+00,  -1.699305e-01,   3.528908e-01
    1038,   4.634305e+00,  -3.892424e-01,  -2.375848e-01
    1039,   4.386880e+00,  -3.677251e-01,   3.310441e-01
    1040,   1.184877e+00,  -3.581388e-01,   3.327182e-01
    1041,   1.304995e+00,  -2.650702e-01,   5.000000e-01
    1042,   1.108299e+00,  -3.028750e-01,   5.000000e-01
    1043,  -2.628246e+00,  -1.243486e-01,  -3.462425e-01
    1044,   8.898718e-01,  -3.064839e-01,   2.656683e-01
    1045,  -2.283537e+00,   5.000000e-01,  -2.143467e-01
    1046,  -1.124552e+00,  -3.662406e-01,  -2.283576e-01
    1047,  -1.301737e+00,  -3.419555e-01,  -3.482283e-01
    1048,  -1.151168e+00,  -1.706329e-01,  -3.548621e-01
    1049,   1.193794e+00,   2.841036e-01,   8.346342e-02
    1050,   4.416896e+00,   1.718100e-01,  -3.716081e-01
    1051,   1.369992e+00,   3.236965e-01,   1.347700e-01
    1052,   1.514919e+00,   3.040335e-01,  -3.226622e-02
    1053,   4.157465e+00,  -3.686317e-01,  -1.683360e-01
    1054,   4.109347e+00,  -5.000000e-01,  -2.368990e-01
    1055,   4.271216e+00,  -5.000000e-01,  -3.222117e-01
    1056,   4.271238e+00,  -5.000000e-01,  -1.114321e-01
    1057,  -1.531684e+00,   3.632149e-01,   2.131504e-01
    1058,  -9.303669e-01,  -3.211740e-01,  -1.073130e-01
    1059,  -9.855300e-01,  -2.514991e-01,  -3.626907e-01
    1060,   1.003895e+00,  -5.000000e-01,   3.486800e-01
    1061,   1.274574e+00,   3.523648e-01,  -2.133337e-01
    1062,   1.162235e+00,  -1.142570e-01,   5.000000e-01
    1063,   9.821070e-01,  -1.097549e-01,   5.000000e-01
    1064,  -4.178642e+00,  -3.462077e-01,  -3.573859e-01
    1065,   1.308002e+00,   5.000000e-01,  -2.228474e-02
    1066,  -1.912019e+00,  -5.000000e-01,  -4.317720e-02
    1067,  -4.855207e+00,  -9.743530e-02,  -2.219470e-01
    1068,   4.166667e+00,  -5.000000e-01,  -5.000000e-01
    1069,  -3.541620e+00,   1.175014e-01,   5.000000e-01
    1070,  -3.732812e+00,  -1.693263e-03,   5.000000e-01
    1071,   4.599865e+00,  -3.479677e-01,   5.000000e-01
    1072,   0.000000e+00,   5.000000e-01,  -5.000000e-01
    1073,  -8.447275e-02,   5.000000e-01,  -2.977047e-01
    1074,   2.940580e+00,  -3.661401e-01,  -3.524559e-01
    1075,   1.918039e+00,  -1.451996e-01,   3.472414e-01
    1076,  -3.344528e+00,  -5.000000e-01,  -2.438140e-01
    1077,  -4.166667e-01,   5.000000e-01,   5.000000e-01
    1078,  -6.250000e-01,   5.000000e-01,   5.000000e-01
    1079,  -5.048822e-01,   2.980372e-01,   5.000000e-01
    1080,  -2.952656e-01,   2.989618e-01,   5.000000e-01
    1081,  -2.713993e-01,   3.585580e-01,   2.636844e-01
    1082,  -4.696510e-01,   5.000000e-01,   1.035934e-01
    1083,  -3.388443e-01,   5.000000e-01,   3.013542e-01
    1084,   2.096322e+00,  -1.950406e-01,  -5.000000e-01
    1085,   2.218094e+00,  -3.486108e-01,  -3.471529e-01
    1086,   1.987820e+00,  -3.560001e-01,  -3.640854e-01
    1087,  -2.639441e+00,   3.617031e-02,  -5.000000e-01
    1088,  -2.470013e+00,   1.901134e-01,  -5.000000e-01
    1089,   3.142541e+00,  -3.508002e-01,  -5.000000e-01
    1090,   3.344528e+00,  -2.438140e-01,  -5.000000e-01
    1091,  -2.281854e+00,   5.473760e-02,  -5.000000e-01
    1092,  -2.466770e+00,  -7.891771e-02,  -5.000000e-01
    1093,  -2.479171e+00,   3.022392e-01,  -2.354087e-01
    1094,  -4.791076e-01,   2.619509e-01,  -3.455072e-01
    1095,  -5.798127e-01,   3.582760e-01,  -2.428657e-01
    1096,  -1.987849e+00,  -3.558338e-01,  -1.548250e-01
    1097,  -1.908094e+00,  -1.159914e-01,  -3.439159e-01
    1098,  -1.867747e+00,  -3.355606e-01,  -3.120442e-01
    1099,   3.160217e+00,  -1.143935e-01,   5.000000e-01
    1100,   2.983106e+00,   8.954394e-03,   5.000000e-01
    1101,   3.154479e+00,   2.547095e-01,   3.660080e-01
    1102,   8.501651e-01,   2.525941e-01,   3.494010e-01
    1103,   4.442543e+00,   5.000000e-01,  -7.295539e-04
    1104,   4.271238e+00,   5.000000e-01,   1.114321e-01
    1105,   3.339597e+00,   3.285848e-01,  -3.382267e-01
    1106,   2.094061e+00,   1.511493e-01,   3.079924e-01
    1107,   2.160872e+00,   3.473994e-01,   2.252674e-01
    1108,   2.466770e+00,  -5.000000e-01,  -7.891771e-02
    1109,   2.664890e+00,  -3.686677e-01,   1.938730e-01
    1110,   4.558996e+00,   3.319178e-01,  -2.323886e-01
    1111,  -1.904736e+00,   1.931295e-01,  -3.016469e-01
    1112,   3.541620e+00,   1.175014e-01,  -5.000000e-01
    1113,   2.812035e+00,  -2.423466e-01,   3.571633e-01
    1114,  -3.541620e+00,  -5.000000e-01,   1.175014e-01
    1115,   1.918713e+00,  -2.893638e-01,  -5.000000e-01
    1116,   2.975034e+00,  -5.000000e-01,   2.435894e-01
    1117,   3.142541e+00,  -5.000000e-01,   3.508002e-01
    1118,  -2.008223e+00,   3.715348e-01,   3.386167e-01
    1119,  -2.087604e+00,   3.325820e-01,   5.000000e-01
    1120,  -1.896308e+00,   2.177133e-01,   5.000000e-01
    1121,  -1.875000e+00,   5.000000e-01,   5.000000e-01
    1122,  -2.916667e+00,   5.000000e-01,  -5.000000e-01
    1123,  -2.813629e+00,   3.319451e-01,  -5.000000e-01
    1124,  -2.975034e+00,   2.435894e-01,  -5.000000e-01
    1125,   2.210417e-01,   3.169546e-01,  -6.460199e-02
    1126,  -4.399352e+00,  -3.516561e-01,   1.743224e-01
    1127,   1.392343e+00,   1.695720e-01,  -3.454895e-01
    1128,   2.812082e+00,   5.000000e-01,  -1.323004e-01
    1129,   2.983106e+00,   5.000000e-01,  -8.954394e-03
    1130,   2.975034e+00,   5.000000e-01,  -2.435894e-01
    1131,   4.442543e+00,  -7.295539e-04,  -5.000000e-01
    1132,  -4.271216e+00,  -5.000000e-01,   3.222117e-01
    1133,  -4.166667e+00,  -5.000000e-01,   5.000000e-01
    1134,   2.500000e+00,  -5.000000e-01,  -5.000000e-01
    1135,   2.287009e+00,  -3.224075e-01,  -5.000000e-01
    1136,   1.912019e+00,   1.378817e-01,  -3.477257e-01
    1137,   2.083333e+00,  -5.000000e-01,  -5.000000e-01
    1138,   2.087604e+00,  -5.000000e-01,  -3.325820e-01
    1139,   2.972803e+00,  -2.313751e-01,   5.000000e-01
    1140,   3.140940e+00,  -3.476649e-01,   5.000000e-01
    1141,  -1.714875e-01,   5.000000e-01,  -9.781584e-02
    1142,   7.818008e-01,  -1.036587e-01,   5.000000e-01
    1143,   5.738628e-01,  -1.039614e-01,   5.000000e-01
    1144,   7.026448e-01,  -3.035458e-01,   5.000000e-01
    1145,   3.737793e+00,  -2.410452e-01,   5.000000e-01
    1146,  -2.641442e+00,  -3.349120e-01,   1.403056e-01
    1147,  -4.853010e+00,  -3.493498e-01,   3.511889e-01
    1148,  -5.000000e+00,  -1.694489e-01,   3.385684e-01
    1149,  -5.000000e+00,  -3.201853e-01,   2.377070e-01
    1150,  -2.470013e+00,  -1.901134e-01,   5.000000e-01
    1151,   8.681951e-01,  -9.162275e-02,  -5.000000e-01
    1152,   7.458092e-01,  -2.972814e-01,  -5.000000e-01
    1153,   6.574021e-01,  -9.650224e-02,  -5.000000e-01
    1154,  -2.811169e+00,   9.578622e-02,   5.000000e-01
    1155,  -3.344737e+00,  -5.000000e-01,   2.406696e-01
    1156,   3.543778e+00,  -3.083515e-01,  -2.458288e-01
    1157,   3.925313e+00,  -2.520068e-01,  -3.489528e-01
    1158,  -8.447275e-02,  -2.977047e-01,  -5.000000e-01
    1159,  -2.952656e-01,  -2.989618e-01,  -5.000000e-01
    1160,  -1.223672e-01,  -5.000000e-01,  -2.988137e-01
    1161,  -4.856023e+00,   7.728164e-02,  -6.071704e-02
    1162,  -5.000000e+00,   1.268292e-01,  -1.433405e-01
    1163,  -5.000000e+00,   1.039375e-01,   9.224423e-02
    1164,  -5.000000e+00,   3.090626e-01,  -2.300082e-02
    1165,   3.696933e-01,   1.023880e-01,  -5.000000e-01
    1166,   5.738628e-01,   1.039614e-01,  -5.000000e-01
    1167,  -3.941285e+00,  -5.000000e-01,  -3.482115e-01
    1168,  -3.941587e+00,  -3.493926e-01,  -5.000000e-01
    1169,  -4.271629e+00,   1.104587e-01,  -5.000000e-01
    1170,  -4.110475e+00,   2.375940e-01,  -5.000000e-01
    1171,   1.172547e+00,   2.765503e-01,   5.000000e-01
    1172,   1.304995e+00,   5.000000e-01,   2.650702e-01
    1173,   1.250000e+00,   5.000000e-01,   5.000000e-01
    1174,   1.469796e+00,   3.607834e-01,   3.438616e-01
    1175,   4.271238e+00,   1.114321e-01,  -5.000000e-01
    1176,   4.463861e+00,  -3.504802e-01,  -3.577740e-01
    1177,   4.375000e+00,  -5.000000e-01,  -5.000000e-01
    1178,   4.583333e+00,  -5.000000e-01,  -5.000000e-01
    1179,   4.599865e+00,  -5.000000e-01,  -3.479677e-01
    1180,  -1.729241e+00,   2.296385e-01,  -3.385605e-01
    1181,  -1.547876e+00,   7.020980e-02,  -5.000000e-01
    1182,  -1.742373e+00,   1.546408e-01,  -5.000000e-01
    1183,  -1.586642e+00,   3.042254e-01,  -5.000000e-01
    1184,  -2.811169e+00,  -5.000000e-01,   9.578622e-02
    1185,  -2.812082e+00,  -5.000000e-01,  -1.323004e-01
    1186,  -2.639441e+00,  -5.000000e-01,  -3.617031e-02
    1187,  -3.737793e+00,   5.000000e-01,  -2.410452e-01
    1188,  -3.923348e+00,   5.000000e-01,  -1.170162e-01
    1189,   1.630066e-01,  -1.027239e-01,   5.000000e-01
    1190,   2.457127e-01,   9.680209e-02,   5.000000e-01
    1191,   1.381921e+00,   2.745487e-01,   5.000000e-01
    1192,   1.582681e+00,   3.088997e-01,   5.000000e-01
    1193,   1.458333e+00,   5.000000e-01,   5.000000e-01
    1194,  -1.355945e+00,   3.461300e-01,   3.533966e-01
    1195,  -1.125999e+00,   2.880235e-01,   5.000000e-01
    1196,  -1.250000e+00,   5.000000e-01,   5.000000e-01
    1197,   5.000000e+00,  -5.000000e-01,   1.000000e-01
    1198,   5.000000e+00,  -3.073142e-01,   2.245571e-01
    1199,   4.802396e+00,  -5.000000e-01,   2.330435e-01
    1200,   4.779872e+00,  -3.442769e-01,   3.222791e-01
    1201,  -1.108230e+00,  -3.519039e-01,   6.375229e-02
    1202,  -1.875000e+00,  -5.000000e-01,  -5.000000e-01
    1203,  -1.918713e+00,  -5.000000e-01,  -2.893638e-01
    1204,  -5.000000e+00,  -1.000000e-01,   5.000000e-01
    1205,  -5.000000e+00,   9.805393e-03,   3.092498e-01
    1206,  -4.618241e+00,  -5.000000e-01,   1.164829e-01
    1207,  -4.432331e+00,  -5.000000e-01,   2.375467e-01
    1208,  -5.000000e+00,  -3.000000e-01,   5.000000e-01
    1209,   1.833429e-01,   3.616444e-01,   3.596112e-01
    1210,   0.000000e+00,   5.000000e-01,   5.000000e-01
    1211,  -8.447275e-02,   2.977047e-01,   5.000000e-01
    1212,   1.223672e-01,   2.988137e-01,   5.000000e-01
    1213,  -3.160612e+00,   5.000000e-01,   1.212750e-01
    1214,  -3.344528e+00,   5.000000e-01,   2.438140e-01
    1215,  -3.540844e+00,   5.000000e-01,   3.494497e-01
    1216,  -3.540607e+00,   3.478107e-01,   5.000000e-01
    1217,   1.630066e-01,   5.000000e-01,   1.027239e-01
    1218,   2.885293e-01,   5.000000e-01,   3.004639e-01
    1219,   3.296394e-01,   2.973786e-01,   5.000000e-01
    1220,  -4.375000e+00,   5.000000e-01,   5.000000e-01
    1221,  -4.599865e+00,   3.479677e-01,   5.000000e-01
    1222,  -3.737793e+00,   2.410452e-01,   5.000000e-01
    1223,  -3.923348e+00,   1.170162e-01,   5.000000e-01
    1224,  -2.588049e+00,  -3.651520e-01,  -3.411703e-01
    1225,  -2.287009e+00,  -5.000000e-01,  -3.224075e-01
    1226,  -2.469762e+00,  -5.000000e-01,  -1.904530e-01
    1227,  -2.651026e+00,  -2.193981e-01,  -5.000000e-01
    1228,   1.079128e+00,   5.000000e-01,  -7.973940e-02
    1229,   7.708742e-01,  -5.000000e-01,   3.113213e-01
    1230,   8.333333e-01,  -5.000000e-01,   5.000000e-01
    1231,   6.250000e-01,  -5.000000e-01,   5.000000e-01
    1232,   2.637599e+00,  -3.276927e-01,   3.473590e-01
    1233,  -3.698481e+00,  -3.620168e-01,   3.623955e-01
    1234,  -3.540607e+00,  -5.000000e-01,   3.478107e-01
    1235,  -3.750000e+00,  -5.000000e-01,   5.000000e-01
    1236,  -3.737793e+00,  -5.000000e-01,   2.410452e-01
    1237,   7.658671e-01,  -3.663045e-01,  -2.524253e-01
    1238,   8.333333e-01,  -5.000000e-01,  -5.000000e-01
    1239,   7.132179e-01,  -5.000000e-01,  -2.973016e-01
    1240,  -4.804677e+00,  -2.871014e-04,   5.000000e-01
    1241,  -5.000000e+00,   1.000000e-01,   5.000000e-01
    1242,  -5.000000e+00,  -3.268909e-01,  -1.587558e-01
    1243,  -5.000000e+00,  -1.055564e-01,  -9.186225e-02
    1244,  -5.000000e+00,  -2.265064e-01,  -3.094742e-01
    1245,  -8.587916e-01,  -3.633527e-01,  -3.288737e-01
    1246,  -7.132179e-01,  -2.973016e-01,  -5.000000e-01
    1247,  -3.344737e+00,   2.406696e-01,   5.000000e-01
    1248,  -4.459881e+00,   3.578385e-01,  -3.521132e-01
    1249,  -4.432151e+00,   2.373405e-01,  -5.000000e-01
    1250,  -4.375000e+00,   5.000000e-01,  -5.000000e-01
    1251,  -4.270712e+00,   3.210638e-01,  -5.000000e-01
    1252,  -7.458092e-01,  -5.000000e-01,  -2.972814e-01
    1253,  -8.681951e-01,  -5.000000e-01,  -9.162275e-02
    1254,  -4.432331e+00,   5.000000e-01,  -2.375467e-01
    1255,  -4.271238e+00,   5.000000e-01,  -1.114321e-01
    1256,  -3.160217e+00,  -1.143935e-01,  -5.000000e-01
    1257,  -3.348084e+00,   2.800906e-03,  -5.000000e-01
    1258,  -3.332235e+00,  -3.462045e-01,   3.278767e-01
    1259,  -3.540844e+00,   3.494497e-01,  -5.000000e-01
    1260,  -3.540490e+00,   1.197095e-01,  -5.000000e-01
    1261,  -3.737226e+00,   2.421121e-01,  -5.000000e-01
    1262,  -1.041667e+00,  -5.000000e-01,  -5.000000e-01
    1263,  -9.576579e-01,  -5.000000e-01,  -2.937410e-01
    1264,  -3.737226e+00,   5.000000e-01,   2.421121e-01
    1265,  -8.333333e-01,  -5.000000e-01,  -5.000000e-01
    1266,  -3.732812e+00,   1.693263e-03,  -5.000000e-01
    1267,  -9.231377e-01,  -2.918423e-01,  -5.000000e-01
    1268,   2.811169e+00,   5.000000e-01,   9.578622e-02
    1269,  -1.386386e+00,   5.000000e-01,   2.563012e-01
    1270,   2.639441e+00,   5.000000e-01,  -3.617031e-02
    1271,  -7.708742e-01,  -3.113213e-01,   5.000000e-01
    1272,  -5.516853e-01,  -3.037397e-01,   5.000000e-01
    1273,  -6.869331e-01,  -1.066154e-01,   5.000000e-01
    1274,   9.093325e-01,  -3.047787e-01,   5.000000e-01
    1275,  -3.827072e-01,   5.000000e-01,  -9.532842e-02
    1276,   1.422233e+00,   3.481214e-01,  -3.795038e-01
    1277,   1.497341e+00,   1.835703e-01,  -5.000000e-01
    1278,   1.304995e+00,   2.650702e-01,  -5.000000e-01
    1279,   4.852016e+00,  -3.478894e-01,  -3.494048e-01
    1280,   4.802396e+00,  -2.330435e-01,  -5.000000e-01
    1281,   5.000000e+00,  -1.675944e-01,  -3.329635e-01
    1282,   4.733561e+00,  -3.437187e-01,  -3.459144e-01
    1283,   4.791667e+00,  -5.000000e-01,  -5.000000e-01
    1284,   4.801667e+00,  -5.000000e-01,  -2.338811e-01
    1285,   4.618241e+00,   1.164829e-01,  -5.000000e-01
    1286,   4.617186e+00,  -1.151761e-01,  -5.000000e-01
    1287,   4.432151e+00,  -2.373405e-01,  -5.000000e-01
    1288,   4.600176e+00,  -3.482832e-01,  -5.000000e-01
    1289,   4.804677e+00,   2.871014e-04,   5.000000e-01
    1290,   4.791667e+00,  -5.000000e-01,   5.000000e-01
    1291,  -3.140940e+00,   5.000000e-01,  -3.476649e-01
    1292,  -3.384089e+00,   1.669256e-01,  -3.609402e-01
    1293,  -4.617186e+00,   1.151761e-01,  -5.000000e-01
    1294,  -4.600176e+00,   3.482832e-01,  -5.000000e-01
    1295,  -4.270712e+00,  -5.000000e-01,  -3.210638e-01
    1296,  -3.700779e+00,   3.571772e-01,  -3.648030e-01
    1297,  -5.000000e+00,  -1.268704e-01,   1.442547e-01
    1298,  -4.618241e+00,  -1.164829e-01,  -5.000000e-01
    1299,  -4.271629e+00,   5.000000e-01,   1.104587e-01
    1300,  -4.599865e+00,  -5.000000e-01,   3.479677e-01
    1301,  -4.375000e+00,  -5.000000e-01,   5.000000e-01
    1302,  -2.466149e+00,  -5.000000e-01,   7.828825e-02
    1303,  -2.651026e+00,  -5.000000e-01,   2.193981e-01
    1304,  -2.496946e+00,  -3.643497e-01,   3.475537e-01
    1305,  -2.719399e+00,  -3.512332e-01,   3.325500e-01
    1306,   1.339343e+00,  -3.484078e-01,  -3.511826e-01
    1307,  -1.813686e+00,   3.686456e-01,   3.012075e-01
    1308,  -3.737226e+00,  -2.421121e-01,   5.000000e-01
    1309,  -5.000000e+00,   3.181872e-01,  -2.397839e-01
    1310,  -3.160217e+00,   5.000000e-01,  -1.143935e-01
    1311,  -1.742373e+00,   5.000000e-01,   1.546408e-01
    1312,  -2.466770e+00,   7.891771e-02,   5.000000e-01
    1313,  -2.810987e+00,   3.123908e-01,   5.000000e-01
    1314,  -2.972803e+00,   2.313751e-01,   5.000000e-01
    1315,  -3.140940e+00,  -3.476649e-01,  -5.000000e-01
    1316,  -3.344737e+00,  -2.406696e-01,  -5.000000e-01
    1317,  -3.540844e+00,  -3.494497e-01,   5.000000e-01
    1318,  -3.732812e+00,  -5.000000e-01,  -1.693263e-03
    1319,  -2.093657e+00,   7.901676e-02,   5.000000e-01
    1320,   1.710592e+00,   7.820313e-02,  -5.000000e-01
    1321,   2.972803e+00,  -5.000000e-01,  -2.313751e-01
    1322,   1.386386e+00,  -5.000000e-01,   2.563012e-01
    1323,   1.547876e+00,  -5.000000e-01,   7.020980e-02
    1324,   2.972803e+00,   5.000000e-01,   2.313751e-01
    1325,   4.432331e+00,  -5.000000e-01,  -2.375467e-01
    1326,   2.619220e+00,   3.623070e-01,   1.500986e-01
    1327,   2.651026e+00,   5.000000e-01,   2.193981e-01
    1328,   4.870327e+00,   2.728426e-01,   1.627732e-01
    1329,   5.000000e+00,   3.232595e-01,   2.415351e-01
    1330,   5.000000e+00,   1.367293e-01,   1.493813e-01
    1331,   5.000000e+00,   3.134996e-01,   2.656826e-02
    1332,   2.291667e+00,  -5.000000e-01,  -5.000000e-01
    1333,   2.283537e+00,  -5.000000e-01,  -2.143467e-01
    1334,  -1.055487e+00,   1.279117e-01,  -3.688498e-01
    1335,   3.160612e+00,   1.212750e-01,   5.000000e-01
    1336,   2.943337e+00,   3.512964e-01,   3.627761e-01
    1337,   3.142541e+00,   3.508002e-01,   5.000000e-01
    1338,   2.975034e+00,   2.435894e-01,   5.000000e-01
    1339,  -3.001083e+00,  -3.458834e-01,   3.613157e-01
    1340,  -3.140940e+00,  -5.000000e-01,   3.476649e-01
    1341,  -2.972803e+00,  -5.000000e-01,   2.313751e-01
    1342,  -2.916667e+00,  -5.000000e-01,   5.000000e-01
    1343,   2.096322e+00,   1.950406e-01,   5.000000e-01
    1344,   2.287009e+00,   3.224075e-01,   5.000000e-01
    1345,  -2.812082e+00,  -1.323004e-01,   5.000000e-01
    1346,  -2.649552e+00,  -2.842495e-01,   5.000000e-01
    1347,   2.280933e+00,   5.559345e-02,   5.000000e-01
    1348,  -2.500000e+00,  -5.000000e-01,   5.000000e-01
    1349,  -2.813629e+00,  -3.319451e-01,   5.000000e-01
    1350,  -2.975034e+00,  -2.435894e-01,   5.000000e-01
    1351,   4.271216e+00,  -3.222117e-01,   5.000000e-01
    1352,  -3.344528e+00,  -2.438140e-01,   5.000000e-01
    1353,  -1.574273e+00,  -3.447770e-01,   3.662204e-01
    1354,  -1.666667e+00,  -5.000000e-01,   5.000000e-01
    1355,  -1.683800e+00,  -5.000000e-01,   3.287916e-01
    1356,  -1.458333e+00,  -5.000000e-01,   5.000000e-01
    1357,  -1.920565e+00,  -2.898024e-01,   5.000000e-01
    1358,  -2.281854e+00,   5.000000e-01,   5.473760e-02
    1359,  -1.913658e+00,   5.000000e-01,   4.136493e-02
    1360,  -2.651026e+00,   2.193981e-01,   5.000000e-01
    1361,   3.345859e+00,  -3.333567e-01,  -3.275872e-01
    1362,  -2.093657e+00,  -7.901676e-02,  -5.000000e-01
    1363,  -2.283537e+00,  -2.143467e-01,  -5.000000e-01
    1364,  -1.586642e+00,   5.000000e-01,   3.042254e-01
    1365,  -1.760179e+00,   5.000000e-01,   3.497393e-01
    1366,  -1.896308e+00,  -2.177133e-01,  -5.000000e-01
    1367,   7.026448e-01,   3.035458e-01,  -5.000000e-01
    1368,  -9.821070e-01,  -5.000000e-01,   1.097549e-01
    1369,  -7.818008e-01,  -5.000000e-01,   1.036587e-01
    1370,  -9.093325e-01,  -5.000000e-01,   3.047787e-01
    1371,   8.681951e-01,   5.000000e-01,  -9.162275e-02
    1372,   7.458092e-01,   5.000000e-01,  -2.972814e-01
    1373,  -1.341321e+00,  -3.345934e-01,   3.403009e-01
    1374,  -1.314179e+00,  -1.382996e-01,   3.432079e-01
    1375,  -1.553125e+00,   3.584808e-01,   3.838642e-01
    1376,  -1.666667e+00,   5.000000e-01,   5.000000e-01
    1377,  -1.458333e+00,   5.000000e-01,   5.000000e-01
    1378,  -9.132534e-01,  -1.302701e-01,   5.000000e-01
    1379,  -1.003895e+00,  -3.486800e-01,   5.000000e-01
    1380,  -1.531283e+00,  -5.000000e-01,  -8.126521e-02
    1381,  -1.582681e+00,  -5.000000e-01,  -3.088997e-01
    1382,   1.523069e+00,   3.243629e-01,  -2.219103e-01
    1383,   1.381921e+00,   5.000000e-01,  -2.745487e-01
    1384,   4.954768e-01,   5.000000e-01,   3.022896e-01
    1385,   4.166667e-01,   5.000000e-01,   5.000000e-01
    1386,  -2.983106e+00,   5.000000e-01,   8.954394e-03
    1387,   1.108299e+00,   5.000000e-01,   3.028750e-01
    1388,   9.821070e-01,   5.000000e-01,   1.097549e-01
    1389,   9.093325e-01,   5.000000e-01,   3.047787e-01
    1390,   3.750000e+00,   5.000000e-01,  -5.000000e-01
    1391,  -4.756423e+00,  -3.571911e-01,  -3.424783e-01
    1392,  -4.867192e+00,  -3.196567e-01,  -2.577460e-01
    1393,  -3.160217e+00,   1.143935e-01,   5.000000e-01
    1394,   4.465329e+00,   3.513153e-01,   3.546054e-01
    1395,   4.600176e+00,   3.482832e-01,   5.000000e-01
    1396,   4.583333e+00,   5.000000e-01,   5.000000e-01
    1397,   4.375000e+00,   5.000000e-01,   5.000000e-01
    1398,  -3.162115e+00,  -2.469788e-01,   3.836214e-01
    1399,   1.162235e+00,   1.142570e-01,  -5.000000e-01
    1400,   1.308002e+00,  -2.228474e-02,  -5.000000e-01
    1401,   8.681951e-01,   9.162275e-02,   5.000000e-01
    1402,   6.574021e-01,   9.650224e-02,   5.000000e-01
    1403,   1.172547e+00,   5.000000e-01,  -2.765503e-01
    1404,   1.162066e+00,   3.299440e-01,   2.261108e-01
    1405,   1.162235e+00,   5.000000e-01,   1.142570e-01
    1406,   4.505699e-01,  -9.741189e-02,  -5.000000e-01
    1407,   3.941285e+00,  -5.000000e-01,   3.482115e-01
    1408,   2.083333e-01,   5.000000e-01,  -5.000000e-01
    1409,   1.223672e-01,   5.000000e-01,  -2.988137e-01
    1410,   7.818008e-01,   1.036587e-01,  -5.000000e-01
    1411,   9.821070e-01,   1.097549e-01,  -5.000000e-01
    1412,  -2.083333e-01,  -5.000000e-01,   5.000000e-01
    1413,   0.000000e+00,  -5.000000e-01,   5.000000e-01
    1414,   2.083333e-01,   5.000000e-01,   5.000000e-01
    1415,   1.287022e-01,  -5.000000e-01,   3.001021e-01
    1416,  -3.388443e-01,  -3.013542e-01,   5.000000e-01
    1417,  -4.166667e-01,  -5.000000e-01,   5.000000e-01
    1418,   2.457127e-01,   5.000000e-01,  -9.680209e-02
    1419,   3.696933e-01,   5.000000e-01,   1.023880e-01
    1420,   4.505699e-01,   5.000000e-01,  -9.741189e-02
    1421,  -2.565781e-01,  -1.017783e-01,   5.000000e-01
    1422,   3.696933e-01,  -1.023880e-01,   5.000000e-01
    1423,   1.282760e+00,   1.767893e-01,   3.304157e-01
    1424,   4.166667e-01,  -5.000000e-01,  -5.000000e-01
    1425,   2.952656e-01,  -5.000000e-01,  -2.989618e-01
    1426,   3.296394e-01,  -2.973786e-01,  -5.000000e-01
    1427,   2.083333e-01,  -5.000000e-01,  -5.000000e-01
    1428,  -5.048822e-01,  -2.980372e-01,  -5.000000e-01
    1429,  -3.827072e-01,  -9.532842e-02,  -5.000000e-01
    1430,   4.726062e+00,   3.699252e-01,   1.604719e-01
    1431,  -1.125999e+00,   5.000000e-01,  -2.880235e-01
    1432,  -1.141881e+00,  -3.182507e-01,   3.662128e-01
    1433,  -1.163667e+00,  -1.639683e-01,   5.000000e-01
    1434,  -1.386386e+00,  -2.563012e-01,   5.000000e-01
    1435,  -1.250000e+00,  -5.000000e-01,   5.000000e-01
    1436,  -4.954768e-01,  -5.000000e-01,   3.022896e-01
    1437,   5.000000e+00,   1.759860e-01,   3.411733e-01
    1438,  -1.386386e+00,   2.563012e-01,  -5.000000e-01
    1439,  -1.576584e+00,   3.707407e-01,  -3.891179e-01
    1440,  -1.650593e+00,   3.545675e-01,  -2.019862e-01
    1441,  -1.512244e+00,   5.000000e-01,  -1.932941e-01
    1442,  -3.541667e+00,   5.000000e-01,   5.000000e-01
    1443,  -3.750000e+00,   5.000000e-01,   5.000000e-01
    1444,   4.432331e+00,   5.000000e-01,   2.375467e-01
    1445,   4.618241e+00,   5.000000e-01,   1.164829e-01
    1446,   4.802396e+00,   2.330435e-01,   5.000000e-01
    1447,  -4.109347e+00,   2.368990e-01,   5.000000e-01
    1448,   3.343856e+00,  -3.589917e-01,   3.370817e-01
    1449,   3.344528e+00,  -5.000000e-01,   2.438140e-01
    1450,   3.540607e+00,  -3.478107e-01,   5.000000e-01
    1451,   3.333333e+00,  -5.000000e-01,   5.000000e-01
    1452,   3.540844e+00,  -5.000000e-01,   3.494497e-01
    1453,   8.017783e-02,   5.000000e-01,   3.003188e-01
    1454,  -5.738628e-01,  -5.000000e-01,   1.039614e-01
    1455,  -3.696933e-01,  -5.000000e-01,   1.023880e-01
    1456,  -1.710592e+00,  -5.000000e-01,   7.820313e-02
    1457,   5.000000e+00,   1.098073e-01,  -8.585589e-02
    1458,   5.000000e+00,  -8.974275e-02,   1.061816e-01
    1459,  -8.333333e-01,  -5.000000e-01,   5.000000e-01
    1460,  -1.041667e+00,  -5.000000e-01,   5.000000e-01
    1461,   5.353112e-01,  -2.985309e-01,  -5.000000e-01
    1462,   5.048822e-01,  -5.000000e-01,  -2.980372e-01
    1463,   6.250000e-01,  -5.000000e-01,  -5.000000e-01
    1464,   4.270712e+00,  -5.000000e-01,   3.210638e-01
    1465,   4.432151e+00,  -5.000000e-01,   2.373405e-01
    1466,   4.600176e+00,   5.000000e-01,  -3.482832e-01
    1467,   4.599865e+00,   3.479677e-01,  -5.000000e-01
    1468,  -1.022435e+00,   7.133500e-02,   5.000000e-01
    1469,  -1.196071e+00,   8.782199e-02,   5.000000e-01
    1470,   5.000000e+00,  -1.215455e-01,  -1.349047e-01
    1471,   4.110475e+00,   5.000000e-01,  -2.375940e-01
    1472,  -1.685765e+00,   5.000000e-01,  -3.304040e-01
    1473,  -1.666667e+00,   5.000000e-01,  -5.000000e-01
    1474,  -1.760179e+00,   3.497393e-01,  -5.000000e-01
    1475,   5.000000e+00,  -3.164003e-01,  -2.326761e-01
    1476,   4.271629e+00,   1.104587e-01,   5.000000e-01
    1477,  -1.458333e+00,   5.000000e-01,  -5.000000e-01
    1478,   3.540844e+00,  -3.494497e-01,  -5.000000e-01
    1479,   3.737226e+00,  -2.421121e-01,  -5.000000e-01
    1480,   4.432331e+00,  -2.375467e-01,   5.000000e-01
    1481,   4.271238e+00,  -1.114321e-01,   5.000000e-01
    1482,   5.000000e+00,  -5.000000e-01,  -3.000000e-01
    1483,   9.231377e-01,  -5.000000e-01,  -2.918423e-01
    1484,   8.095261e-01,  -5.000000e-01,  -8.550817e-02
    1485,   3.140940e+00,  -5.000000e-01,  -3.476649e-01
    1486,   4.617186e+00,   1.151761e-01,   5.000000e-01
    1487,   1.125999e+00,  -5.000000e-01,  -2.880235e-01
    1488,   3.737226e+00,  -5.000000e-01,   2.421121e-01
    1489,   9.576579e-01,  -2.937410e-01,  -5.000000e-01
    1490,  -4.271216e+00,   5.000000e-01,  -3.222117e-01
    1491,   1.918713e+00,   2.893638e-01,   5.000000e-01
    1492,   1.759154e+00,   3.502355e-01,   5.000000e-01
    1493,   1.666667e+00,   5.000000e-01,   5.000000e-01
    1494,   1.875000e+00,   5.000000e-01,   5.000000e-01
    1495,  -4.852261e+00,   3.535673e-01,  -3.461944e-01
    1496,  -5.000000e+00,   5.000000e-01,  -5.000000e-01
    1497,  -5.000000e+00,   3.000000e-01,  -5.000000e-01
    1498,  -5.000000e+00,   5.000000e-01,  -3.000000e-01
    1499,   2.086563e+00,   5.000000e-01,   3.333660e-01
    1500,   2.010024e+00,   3.586971e-01,   3.724237e-01
    1501,  -2.096322e+00,  -5.000000e-01,  -1.950406e-01
    1502,  -1.760179e+00,  -3.497393e-01,   5.000000e-01
    1503,   4.600176e+00,  -5.000000e-01,   3.482832e-01
    1504,   2.813629e+00,  -3.319451e-01,  -5.000000e-01
    1505,   2.708333e+00,  -5.000000e-01,  -5.000000e-01
    1506,   2.649552e+00,  -2.842495e-01,  -5.000000e-01
    1507,  -4.166667e+00,   5.000000e-01,  -5.000000e-01
    1508,  -3.344528e+00,   2.438140e-01,  -5.000000e-01
    1509,  -1.497341e+00,  -5.000000e-01,   1.835703e-01
    1510,   3.941285e+00,   3.482115e-01,   5.000000e-01
    1511,   3.750000e+00,   5.000000e-01,   5.000000e-01
    1512,  -4.099375e+00,   5.000000e-01,   4.260695e-04
    1513,  -4.110475e+00,   5.000000e-01,   2.375940e-01
    1514,  -3.345859e+00,   3.275872e-01,   3.333567e-01
    1515,  -1.586642e+00,  -3.042254e-01,   5.000000e-01
    1516,   3.541667e+00,   5.000000e-01,   5.000000e-01
    1517,   3.540607e+00,   5.000000e-01,   3.478107e-01
    1518,  -3.541620e+00,  -1.175014e-01,  -5.000000e-01
    1519,  -3.160612e+00,  -1.212750e-01,   5.000000e-01
    1520,  -4.166667e+00,  -5.000000e-01,  -5.000000e-01
    1521,  -3.345859e+00,   3.333567e-01,  -3.275878e-01
    1522,  -3.540607e+00,   5.000000e-01,  -3.478107e-01
    1523,  -3.333333e+00,   5.000000e-01,  -5.000000e-01
    1524,  -8.095261e-01,   5.000000e-01,  -8.550817e-02
    1525,  -2.954618e+00,   3.632187e-01,   3.681120e-01
    1526,  -2.916667e+00,   5.000000e-01,   5.000000e-01
    1527,  -3.941587e+00,   5.000000e-01,  -3.493926e-01
    1528,  -2.983106e+00,   8.954394e-03,  -5.000000e-01
    1529,  -2.565781e-01,   1.017783e-01,  -5.000000e-01
    1530,  -4.618067e-02,   1.021795e-01,  -5.000000e-01
    1531,  -2.983106e+00,  -5.000000e-01,  -8.954394e-03
    1532,  -2.975034e+00,  -5.000000e-01,  -2.435894e-01
    1533,  -2.500000e+00,   5.000000e-01,  -5.000000e-01
    1534,  -2.649552e+00,   2.842495e-01,  -5.000000e-01
    1535,  -3.142541e+00,  -3.508002e-01,   5.000000e-01
    1536,  -3.750000e+00,  -5.000000e-01,  -5.000000e-01
    1537,  -3.541667e+00,  -5.000000e-01,  -5.000000e-01
    1538,  -3.540844e+00,  -5.000000e-01,  -3.494497e-01
    1539,   1.458333e+00,   5.000000e-01,  -5.000000e-01
    1540,   1.250000e+00,   5.000000e-01,  -5.000000e-01
    1541,  -3.330515e+00,  -3.353558e-01,  -3.443566e-01
    1542,  -3.333333e+00,  -5.000000e-01,  -5.000000e-01
    1543,  -3.540607e+00,  -3.478107e-01,  -5.000000e-01
    1544,   3.344528e+00,   5.000000e-01,  -2.438140e-01
    1545,   2.916667e+00,  -5.000000e-01,   5.000000e-01
    1546,   2.812082e+00,  -1.323004e-01,  -5.000000e-01
    1547,   3.142541e+00,   5.000000e-01,  -3.508002e-01
    1548,  -1.003895e+00,   5.000000e-01,   3.486800e-01
    1549,  -1.041667e+00,   5.000000e-01,   5.000000e-01
    1550,  -9.231377e-01,   2.918423e-01,   5.000000e-01
    1551,   4.110475e+00,   2.375940e-01,   5.000000e-01
    1552,   4.270712e+00,   3.210638e-01,   5.000000e-01
    1553,  -1.108299e+00,  -5.000000e-01,   3.028750e-01
    1554,   2.470013e+00,  -5.000000e-01,   1.901134e-01
    1555,   2.287350e+00,  -5.000000e-01,   3.218074e-01
    1556,   2.281854e+00,  -5.000000e-01,   5.473760e-02
    1557,   1.250000e+00,  -5.000000e-01,  -5.000000e-01
    1558,   1.172547e+00,  -2.765503e-01,  -5.000000e-01
    1559,   1.041667e+00,  -5.000000e-01,  -5.000000e-01
    1560,  -1.304995e+00,  -5.000000e-01,   2.650702e-01
    1561,   1.531283e+00,   8.126521e-02,   5.000000e-01
    1562,   1.354565e+00,  -5.000000e-01,  -4.010991e-03
    1563,   2.093657e+00,  -5.000000e-01,  -7.901676e-02
    1564,   3.923348e+00,  -1.170162e-01,   5.000000e-01
    1565,  -1.913658e+00,   4.136493e-02,  -5.000000e-01
    1566,   2.083333e+00,   5.000000e-01,   5.000000e-01
    1567,   2.482952e+00,   3.340170e-01,  -5.000000e-01
    1568,   2.506849e+00,   3.661382e-01,  -3.315050e-01
    1569,   2.651026e+00,   2.193981e-01,  -5.000000e-01
    1570,   2.708333e+00,   5.000000e-01,  -5.000000e-01
    1571,   1.531283e+00,   5.000000e-01,  -8.126521e-02
    1572,   1.330447e+00,  -3.533005e-01,   3.362940e-01
    1573,   1.108299e+00,   3.028750e-01,  -5.000000e-01
    1574,   1.321236e+00,  -5.000000e-01,  -2.725405e-01
    1575,   1.223672e-01,  -2.988137e-01,  -5.000000e-01
    1576,   3.344737e+00,   2.406696e-01,  -5.000000e-01
    1577,  -1.630066e-01,  -5.000000e-01,   1.027239e-01
    1578,  -2.457127e-01,  -5.000000e-01,  -9.680209e-02
    1579,   5.940826e-01,  -5.000000e-01,  -9.534281e-02
    1580,   3.827072e-01,  -5.000000e-01,  -9.532842e-02
    1581,   5.738628e-01,   5.000000e-01,   1.039614e-01
    1582,   6.574021e-01,   5.000000e-01,  -9.650224e-02
    1583,   4.599865e+00,   5.000000e-01,   3.479677e-01
    1584,   3.541620e+00,   5.000000e-01,   1.175014e-01
    1585,   3.737793e+00,   5.000000e-01,   2.410452e-01
    1586,   4.271216e+00,   5.000000e-01,   3.222117e-01
    1587,   7.818008e-01,   5.000000e-01,   1.036587e-01
    1588,   5.353112e-01,   5.000000e-01,  -2.985309e-01
    1589,   1.196071e+00,  -5.000000e-01,  -8.782199e-02
    1590,   8.333333e-01,   5.000000e-01,  -5.000000e-01
    1591,   9.093325e-01,   3.047787e-01,  -5.000000e-01
    1592,   4.954768e-01,   3.022896e-01,  -5.000000e-01
    1593,   3.140940e+00,   5.000000e-01,   3.476649e-01
    1594,   2.810987e+00,   5.000000e-01,   3.123908e-01
    1595,   2.813629e+00,   3.319451e-01,   5.000000e-01
    1596,  -7.704608e-01,   3.575186e-01,  -2.493926e-01
    1597,  -9.231377e-01,   5.000000e-01,  -2.918423e-01
    1598,  -7.132179e-01,   5.000000e-01,  -2.973016e-01
    1599,  -8.333333e-01,   5.000000e-01,  -5.000000e-01
    1600,   0.000000e+00,  -5.000000e-01,  -5.000000e-01
    1601,  -4.696510e-01,   1.035934e-01,  -5.000000e-01
    1602,  -5.516853e-01,   3.037397e-01,  -5.000000e-01
    1603,  -2.952656e-01,   5.000000e-01,  -2.989618e-01
    1604,  -9.132534e-01,   1.302701e-01,  -5.000000e-01
    1605,  -6.869331e-01,   1.066154e-01,  -5.000000e-01
    1606,  -8.095261e-01,  -8.550817e-02,  -5.000000e-01
    1607,   8.447275e-02,  -5.000000e-01,  -2.977047e-01
    1608,  -5.940826e-01,   5.000000e-01,  -9.534281e-02
    1609,  -5.940826e-01,  -9.534281e-02,  -5.000000e-01
    1610,  -3.296394e-01,  -5.000000e-01,  -2.973786e-01
    1611,  -1.381921e+00,  -5.000000e-01,  -2.745487e-01
    1612,   2.457127e-01,  -9.680209e-02,  -5.000000e-01
    1613,  -4.583333e+00,   5.000000e-01,  -5.000000e-01
    1614,  -4.599865e+00,   5.000000e-01,  -3.479677e-01
    1615,  -8.333333e-01,   5.000000e-01,   5.000000e-01
    1616,  -2.291667e+00,  -5.000000e-01,   5.000000e-01
    1617,  -1.931523e+00,   3.494642e-01,  -1.666227e-01
    1618,  -2.283537e+00,   2.143467e-01,   5.000000e-01
    1619,  -1.571245e+00,  -3.931071e-01,  -3.775572e-01
    1620,  -1.458333e+00,  -5.000000e-01,  -5.000000e-01
    1621,  -1.666667e+00,  -5.000000e-01,  -5.000000e-01
    1622,  -1.685765e+00,  -3.304040e-01,  -5.000000e-01
    1623,  -1.547876e+00,  -7.020980e-02,   5.000000e-01
    1624,  -2.093657e+00,   5.000000e-01,  -7.901676e-02
    1625,  -2.087604e+00,   5.000000e-01,  -3.325820e-01
    1626,  -4.583333e+00,   5.000000e-01,   5.000000e-01
    1627,  -4.600176e+00,   5.000000e-01,   3.482832e-01
    1628,   4.386791e+00,   3.611007e-01,  -3.249319e-01
    1629,   4.270712e+00,   5.000000e-01,  -3.210638e-01
    1630,   4.271216e+00,   3.222117e-01,  -5.000000e-01
    1631,  -2.291667e+00,   5.000000e-01,  -5.000000e-01
    1632,  -2.083333e+00,   5.000000e-01,  -5.000000e-01
    1633,   4.097812e+00,   3.632895e-01,  -3.715386e-01
    1634,   4.109347e+00,   2.368990e-01,  -5.000000e-01
    1635,   3.333333e+00,   5.000000e-01,  -5.000000e-01
    1636,   3.125000e+00,   5.000000e-01,  -5.000000e-01
    1637,  -5.000000e+00,   2.273442e-01,   3.078431e-01
    1638,  -4.800526e+00,  -2.893086e-01,   1.182225e-01
    1639,  -4.804677e+00,  -5.000000e-01,  -2.871014e-04
    1640,  -4.801667e+00,  -5.000000e-01,   2.338811e-01
    1641,  -4.442543e+00,   7.295539e-04,  -5.000000e-01
    1642,  -5.000000e+00,  -3.000000e-01,  -5.000000e-01
    1643,  -5.000000e+00,  -5.000000e-01,  -5.000000e-01
    1644,  -4.791667e+00,  -5.000000e-01,  -5.000000e-01
    1645,  -5.000000e+00,  -5.000000e-01,  -3.000000e-01
    1646,   5.000000e+00,  -5.000000e-01,  -1.000000e-01
    1647,   5.000000e+00,  -5.000000e-01,   3.000000e-01
    1648,   5.000000e+00,  -5.000000e-01,   5.000000e-01
    1649,   5.000000e+00,  -3.025632e-01,  -4.974719e-03
    1650,   5.000000e+00,  -1.611155e-01,   3.255889e-01
    1651,  -5.000000e+00,  -5.000000e-01,   3.000000e-01
    1652,  -4.791667e+00,  -5.000000e-01,   5.000000e-01
    1653,  -4.600176e+00,  -3.482832e-01,   5.000000e-01
    1654,  -4.109347e+00,   5.000000e-01,  -2.368990e-01
    1655,  -5.000000e+00,  -5.000000e-01,   1.000000e-01
    1656,  -5.000000e+00,  -3.092066e-01,   2.427839e-02
    1657,  -4.875000e+00,   3.678793e-01,   2.309611e-01
    1658,   2.002314e+00,  -3.783121e-01,   3.355518e-01
    1659,   2.086563e+00,  -3.333660e-01,   5.000000e-01
    1660,   2.083333e+00,  -5.000000e-01,   5.000000e-01
    1661,  -3.941587e+00,   3.493926e-01,   5.000000e-01
    1662,   1.894954e+00,  -2.164174e-01,   5.000000e-01
    1663,  -1.913658e+00,  -4.136493e-02,   5.000000e-01
    1664,   1.875000e+00,  -5.000000e-01,   5.000000e-01
    1665,   2.291667e+00,   5.000000e-01,  -5.000000e-01
    1666,   2.287009e+00,   5.000000e-01,  -3.224075e-01
    1667,  -3.333333e+00,  -5.000000e-01,   5.000000e-01
    1668,  -2.810987e+00,  -3.123908e-01,  -5.000000e-01
    1669,  -2.916667e+00,  -5.000000e-01,  -5.000000e-01
    1670,  -2.972803e+00,  -2.313751e-01,  -5.000000e-01
    1671,  -3.737226e+00,  -5.000000e-01,  -2.421121e-01
    1672,  -2.811169e+00,  -9.578622e-02,  -5.000000e-01
    1673,  -2.500000e+00,  -5.000000e-01,  -5.000000e-01
    1674,  -2.708333e+00,  -5.000000e-01,  -5.000000e-01
    1675,  -2.483360e+00,  -3.344653e-01,  -5.000000e-01
    1676,   4.270712e+00,  -3.210638e-01,  -5.000000e-01
    1677,   2.651026e+00,  -2.193981e-01,   5.000000e-01
    1678,   2.810987e+00,  -3.123908e-01,   5.000000e-01
    1679,  -3.827072e-01,   9.532842e-02,   5.000000e-01
    1680,  -1.920565e+00,   5.000000e-01,   2.898024e-01
    1681,   2.091303e+00,   5.000000e-01,   7.771686e-02
    1682,   2.280933e+00,   5.000000e-01,  -5.559345e-02
    1683,   2.096322e+00,   5.000000e-01,  -1.950406e-01
    1684,   2.916667e+00,  -5.000000e-01,  -5.000000e-01
    1685,   2.810987e+00,  -5.000000e-01,  -3.123908e-01
    1686,  -4.270712e+00,   5.000000e-01,   3.210638e-01
    1687,  -2.813629e+00,  -5.000000e-01,  -3.319451e-01
    1688,  -3.142541e+00,  -5.000000e-01,  -3.508002e-01
    1689,   4.505699e-01,   9.741189e-02,   5.000000e-01
    1690,  -2.811169e+00,   5.000000e-01,  -9.578622e-02
    1691,  -2.482952e+00,  -5.000000e-01,   3.340170e-01
    1692,  -3.941285e+00,   5.000000e-01,   3.482115e-01
    1693,  -1.742373e+00,  -1.546408e-01,   5.000000e-01
    1694,  -1.716105e+00,  -8.059009e-02,  -5.000000e-01
    1695,  -1.512244e+00,  -1.932941e-01,  -5.000000e-01
    1696,  -1.716105e+00,   5.000000e-01,  -8.059009e-02
    1697,  -4.802396e+00,   5.000000e-01,   2.330435e-01
    1698,  -1.308002e+00,  -5.000000e-01,  -2.228474e-02
    1699,   2.482952e+00,   5.000000e-01,   3.340170e-01
    1700,   2.291667e+00,   5.000000e-01,   5.000000e-01
    1701,   2.500000e+00,   5.000000e-01,   5.000000e-01
    1702,   2.631131e+00,   3.475145e-01,   3.491848e-01
    1703,   2.282553e+00,   5.000000e-01,   2.129198e-01
    1704,  -7.026448e-01,  -5.000000e-01,   3.035458e-01
    1705,   2.649552e+00,   2.842495e-01,   5.000000e-01
    1706,   2.469762e+00,   1.904530e-01,   5.000000e-01
    1707,   2.466149e+00,   5.000000e-01,   7.828825e-02
    1708,  -4.600176e+00,  -5.000000e-01,  -3.482832e-01
    1709,   1.308002e+00,   2.228474e-02,   5.000000e-01
    1710,   1.079128e+00,   7.973940e-02,   5.000000e-01
    1711,  -4.801667e+00,  -2.338811e-01,  -5.000000e-01
    1712,   1.458333e+00,  -5.000000e-01,   5.000000e-01
    1713,   1.079128e+00,  -7.973940e-02,  -5.000000e-01
    1714,   7.026448e-01,   5.000000e-01,   3.035458e-01
    1715,  -4.802396e+00,  -5.000000e-01,  -2.330435e-01
    1716,  -2.812082e+00,   5.000000e-01,   1.323004e-01
    1717,  -3.879352e-02,  -5.000000e-01,  -9.760998e-02
    1718,  -8.095261e-01,   8.550817e-02,   5.000000e-01
    1719,  -1.162235e+00,  -5.000000e-01,   1.142570e-01
    1720,   2.500000e+00,   5.000000e-01,  -5.000000e-01
    1721,  -6.574021e-01,  -5.000000e-01,  -9.650224e-02
    1722,  -5.353112e-01,  -5.000000e-01,  -2.985309e-01
    1723,  -4.505699e-01,  -5.000000e-01,  -9.741189e-02
    1724,  -3.344737e+00,   5.000000e-01,  -2.406696e-01
    1725,  -2.972803e+00,   5.000000e-01,  -2.313751e-01
    1726,  -6.250000e-01,  -5.000000e-01,  -5.000000e-01
    1727,  -4.166667e-01,  -5.000000e-01,  -5.000000e-01
    1728,   1.714875e-01,  -5.000000e-01,  -9.781584e-02
    1729,  -4.802396e+00,  -2.330435e-01,   5.000000e-01
    1730,   4.791667e+00,   5.000000e-01,  -5.000000e-01
    1731,   4.801667e+00,   2.338811e-01,  -5.000000e-01
    1732,   6.869331e-01,  -5.000000e-01,   1.066154e-01
    1733,   5.000000e+00,   3.000000e-01,  -5.000000e-01
    1734,   5.000000e+00,   5.000000e-01,  -3.000000e-01
    1735,   4.802396e+00,   5.000000e-01,  -2.330435e-01
    1736,  -4.801667e+00,   2.338811e-01,   5.000000e-01
    1737,  -5.000000e+00,   3.000000e-01,   5.000000e-01
    1738,  -5.000000e+00,   5.000000e-01,   3.000000e-01
    1739,  -4.166667e-01,   5.000000e-01,  -5.000000e-01
    1740,  -5.048822e-01,   5.000000e-01,  -2.980372e-01
    1741,   4.715845e+00,   3.449490e-01,   3.586250e-01
    1742,   4.801667e+00,   5.000000e-01,   2.338811e-01
    1743,   3.348084e+00,  -5.000000e-01,   2.800906e-03
    1744,   3.541620e+00,  -5.000000e-01,  -1.175014e-01
    1745,   4.791667e+00,   5.000000e-01,   5.000000e-01
    1746,   4.855402e+00,   3.498486e-01,   3.461312e-01
    1747,  -1.759154e+00,  -5.000000e-01,  -3.502355e-01
    1748,  -4.713866e+00,   3.219908e-01,  -3.473387e-01
    1749,  -4.801667e+00,   5.000000e-01,  -2.338811e-01
    1750,  -4.791667e+00,   5.000000e-01,  -5.000000e-01
    1751,  -4.802396e+00,   2.330435e-01,  -5.000000e-01
    1752,  -6.250000e-01,  -5.000000e-01,   5.000000e-01
    1753,  -1.079128e+00,  -5.000000e-01,  -7.973940e-02
    1754,  -1.172547e+00,  -5.000000e-01,  -2.765503e-01
    1755,   8.017783e-02,   3.003188e-01,  -5.000000e-01
    1756,  -1.321236e+00,  -2.725405e-01,  -5.000000e-01
    1757,  -7.708742e-01,   3.113213e-01,  -5.000000e-01
    1758,  -1.196071e+00,  -8.782199e-02,  -5.000000e-01
    1759,  -1.022435e+00,  -7.133500e-02,  -5.000000e-01
    1760,  -1.321236e+00,   5.000000e-01,  -2.725405e-01
    1761,  -3.958333e+00,   5.000000e-01,  -5.000000e-01
    1762,  -3.941285e+00,   3.482115e-01,  -5.000000e-01
    1763,  -3.750000e+00,   5.000000e-01,  -5.000000e-01
    1764,   3.879352e-02,   5.000000e-01,  -9.760998e-02
    1765,  -5.000000e+00,   5.000000e-01,  -1.000000e-01
    1766,  -4.804677e+00,   5.000000e-01,   2.871014e-04
    1767,  -2.810987e+00,  -5.000000e-01,   3.123908e-01
    1768,  -5.000000e+00,  -1.194189e-02,  -3.075897e-01
    1769,  -4.804677e+00,   2.871014e-04,  -5.000000e-01
    1770,  -5.000000e+00,  -1.000000e-01,  -5.000000e-01
    1771,  -4.791667e+00,   5.000000e-01,   5.000000e-01
    1772,  -5.000000e+00,   3.252066e-01,   1.584918e-01
    1773,  -2.708333e+00,  -5.000000e-01,   5.000000e-01
    1774,   2.649552e+00,   5.000000e-01,  -2.842495e-01
    1775,   2.690580e+00,   3.111800e-01,  -3.757535e-01
    1776,   2.813629e+00,   5.000000e-01,  -3.319451e-01
    1777,   2.810987e+00,   3.123908e-01,  -5.000000e-01
    1778,   2.811169e+00,   9.578622e-02,  -5.000000e-01
    1779,  -4.618241e+00,   1.164829e-01,   5.000000e-01
    1780,  -4.583333e+00,  -5.000000e-01,   5.000000e-01
    1781,  -4.432331e+00,  -2.375467e-01,  -5.000000e-01
    1782,  -4.271238e+00,  -1.114321e-01,  -5.000000e-01
    1783,  -1.984361e+00,   3.189056e-01,   5.015594e-02
    1784,  -2.097978e+00,   5.000000e-01,   1.945114e-01
    1785,  -5.000000e+00,   5.000000e-01,   1.000000e-01
    1786,  -5.000000e+00,   1.690524e-01,  -3.371780e-01
    1787,  -4.432151e+00,  -5.000000e-01,  -2.373405e-01
    1788,  -1.003895e+00,   3.486800e-01,  -5.000000e-01
    1789,  -3.541667e+00,   5.000000e-01,  -5.000000e-01
    1790,  -1.250000e+00,   5.000000e-01,  -5.000000e-01
    1791,  -5.000000e+00,   5.000000e-01,   5.000000e-01
    1792,  -1.125999e+00,  -2.880235e-01,  -5.000000e-01
    1793,  -1.250000e+00,  -5.000000e-01,  -5.000000e-01
    1794,   1.875000e+00,   5.000000e-01,  -5.000000e-01
    1795,   1.894954e+00,   2.164174e-01,  -5.000000e-01
    1796,   3.541667e+00,   5.000000e-01,  -5.000000e-01
    1797,   4.166667e+00,   5.000000e-01,   5.000000e-01
    1798,   3.958333e+00,   5.000000e-01,   5.000000e-01
    1799,   3.344737e+00,   5.000000e-01,   2.406696e-01
    1800,   2.975034e+00,  -2.435894e-01,  -5.000000e-01
    1801,   3.540607e+00,  -5.000000e-01,  -3.478107e-01
    1802,   4.432151e+00,   5.000000e-01,  -2.373405e-01
    1803,   4.375000e+00,   5.000000e-01,  -5.000000e-01
    1804,   2.812082e+00,  -5.000000e-01,   1.323004e-01
    1805,   3.541667e+00,  -5.000000e-01,  -5.000000e-01
    1806,   3.125000e+00,   5.000000e-01,   5.000000e-01
    1807,   2.916667e+00,   5.000000e-01,   5.000000e-01
    1808,   2.466149e+00,  -7.828825e-02,   5.000000e-01
    1809,   4.375000e+00,  -5.000000e-01,   5.000000e-01
    1810,   5.000000e+00,   6.893474e-03,   3.146064e-01
    1811,   4.166667e+00,   5.000000e-01,  -5.000000e-01
    1812,   1.918713e+00,   5.000000e-01,  -2.893638e-01
    1813,  -1.841939e+00,   3.960912e-01,  -3.434506e-01
    1814,  -1.920565e+00,   2.898024e-01,  -5.000000e-01
    1815,  -1.875000e+00,   5.000000e-01,  -5.000000e-01
    1816,  -1.896308e+00,   5.000000e-01,  -2.177133e-01
    1817,   1.912019e+00,   5.000000e-01,  -4.317720e-02
    1818,   9.576579e-01,   5.000000e-01,  -2.937410e-01
    1819,  -2.483360e+00,   3.344653e-01,   5.000000e-01
    1820,   8.333333e-01,   5.000000e-01,   5.000000e-01
    1821,   9.576579e-01,   2.937410e-01,   5.000000e-01
    1822,   1.041667e+00,   5.000000e-01,  -5.000000e-01
    1823,  -5.000000e+00,  -5.000000e-01,  -1.000000e-01
    1824,   2.885293e-01,   3.004639e-01,  -5.000000e-01
    1825,   2.565781e-01,  -5.000000e-01,   1.017783e-01
    1826,   1.630066e-01,   1.027239e-01,  -5.000000e-01
    1827,   7.458092e-01,   2.972814e-01,   5.000000e-01
    1828,   4.618067e-02,  -5.000000e-01,   1.021795e-01
    1829,  -2.565781e-01,   5.000000e-01,   1.017783e-01
    1830,  -1.287022e-01,   5.000000e-01,   3.001021e-01
    1831,  -4.618067e-02,   5.000000e-01,   1.021795e-01
    1832,  -2.083333e-01,   5.000000e-01,   5.000000e-01
    1833,  -1.163667e+00,   1.639683e-01,  -5.000000e-01
    1834,   6.250000e-01,   5.000000e-01,  -5.000000e-01
    1835,   5.353112e-01,   2.985309e-01,   5.000000e-01
    1836,   2.708333e+00,   5.000000e-01,   5.000000e-01
    1837,  -2.464352e+00,   3.581028e-01,  -3.668096e-01
    1838,  -2.287350e+00,   3.218074e-01,  -5.000000e-01
    1839,   2.097978e+00,  -5.000000e-01,   1.945114e-01
    1840,   2.391993e+00,  -3.473122e-01,   3.322757e-01
    1841,  -2.083333e+00,   5.000000e-01,   5.000000e-01
    1842,  -2.291667e+00,   5.000000e-01,   5.000000e-01
    1843,  -2.287350e+00,   5.000000e-01,   3.218074e-01
    1844,   4.099375e+00,   4.260695e-04,   5.000000e-01
    1845,   3.941587e+00,   5.000000e-01,   3.493926e-01
    1846,   4.954768e-01,  -3.022896e-01,   5.000000e-01
    1847,   5.000000e+00,   1.000000e-01,   5.000000e-01
    1848,   5.000000e+00,   5.000000e-01,   3.000000e-01
    1849,   5.000000e+00,   5.000000e-01,   1.000000e-01
    1850,   5.000000e+00,   5.000000e-01,  -1.000000e-01
    1851,   5.000000e+00,   3.281693e-01,  -1.553565e-01
    1852,  -4.166667e+00,   5.000000e-01,   5.000000e-01
    1853,   3.125000e+00,  -5.000000e-01,   5.000000e-01
    1854,  -2.975034e+00,   5.000000e-01,   2.435894e-01
    1855,  -2.500000e+00,   5.000000e-01,   5.000000e-01
    1856,  -2.649552e+00,   5.000000e-01,   2.842495e-01
    1857,  -2.484851e+00,   4.019695e-01,   3.280107e-01
    1858,  -2.649552e+00,  -5.000000e-01,  -2.842495e-01
    1859,   2.482952e+00,  -3.340170e-01,   5.000000e-01
    1860,   3.750000e+00,  -5.000000e-01,   5.000000e-01
    1861,   5.000000e+00,   2.288762e-01,  -3.062176e-01
    1862,   3.344528e+00,   2.438140e-01,   5.000000e-01
    1863,   3.333333e+00,   5.000000e-01,   5.000000e-01
    1864,  -1.354565e+00,  -4.010991e-03,  -5.000000e-01
    1865,  -3.142541e+00,   3.508002e-01,  -5.000000e-01
    1866,  -5.940826e-01,   9.534281e-02,   5.000000e-01
    1867,  -4.696510e-01,  -1.035934e-01,   5.000000e-01
    1868,  -3.958333e+00,   5.000000e-01,   5.000000e-01
    1869,   5.000000e+00,  -3.000000e-01,  -5.000000e-01
    1870,  -4.109347e+00,  -2.368990e-01,  -5.000000e-01
    1871,   4.804677e+00,   5.000000e-01,  -2.871014e-04
    1872,  -2.812082e+00,   1.323004e-01,  -5.000000e-01
    1873,  -3.125000e+00,  -5.000000e-01,  -5.000000e-01
    1874,   6.250000e-01,   5.000000e-01,   5.000000e-01
    1875,   1.920565e+00,  -5.000000e-01,   2.898024e-01
    1876,   1.742373e+00,  -5.000000e-01,   1.546408e-01
    1877,   2.086563e+00,   3.333660e-01,  -5.000000e-01
    1878,  -1.547876e+00,   5.000000e-01,   7.020980e-02
    1879,   3.296394e-01,   5.000000e-01,  -2.973786e-01
    1880,  -6.250000e-01,   5.000000e-01,  -5.000000e-01
    1881,   5.000000e+00,  -5.000000e-01,  -5.000000e-01
    1882,   4.617186e+00,   5.000000e-01,  -1.151761e-01
    1883,   4.432331e+00,   2.375467e-01,  -5.000000e-01
    1884,   2.813629e+00,  -5.000000e-01,   3.319451e-01
    1885,   2.291667e+00,  -5.000000e-01,   5.000000e-01
    1886,   2.500000e+00,  -5.000000e-01,   5.000000e-01
    1887,   2.649552e+00,  -5.000000e-01,   2.842495e-01
    1888,  -2.885293e-01,  -5.000000e-01,   3.004639e-01
    1889,   4.583333e+00,   5.000000e-01,  -5.000000e-01
    1890,   4.583333e+00,  -5.000000e-01,   5.000000e-01
    1891,   3.348084e+00,  -2.800906e-03,  -5.000000e-01
    1892,  -2.708333e+00,   5.000000e-01,   5.000000e-01
    1893,  -2.810987e+00,   5.000000e-01,  -3.123908e-01
    1894,   1.041667e+00,   5.000000e-01,   5.000000e-01
    1895,  -1.041667e+00,   5.000000e-01,  -5.000000e-01
    1896,  -4.271216e+00,  -3.222117e-01,  -5.000000e-01
    1897,   4.166667e-01,   5.000000e-01,  -5.000000e-01
    1898,  -5.000000e+00,   1.000000e-01,  -5.000000e-01
    1899,   3.958333e+00,   5.000000e-01,  -5.000000e-01
    1900,  -3.541667e+00,  -5.000000e-01,   5.000000e-01
    1901,  -2.083333e+00,  -5.000000e-01,  -5.000000e-01
    1902,   3.958333e+00,  -5.000000e-01,   5.000000e-01
    1903,   3.333333e+00,  -5.000000e-01,  -5.000000e-01
    1904,   2.091303e+00,  -7.771686e-02,   5.000000e-01
    1905,   1.458333e+00,  -5.000000e-01,  -5.000000e-01
    1906,   5.000000e+00,   5.000000e-01,   5.000000e-01
    1907,   5.000000e+00,   3.000000e-01,   5.000000e-01
    1908,  -2.813629e+00,   5.000000e-01,   3.319451e-01
    1909,   4.109347e+00,   5.000000e-01,   2.368990e-01
    1910,   5.000000e+00,   5.000000e-01,  -5.000000e-01
    1911,   3.541667e+00,  -5.000000e-01,   5.000000e-01
    1912,  -2.083333e-01,  -5.000000e-01,  -5.000000e-01
    1913,   4.271629e+00,  -1.104587e-01,  -5.000000e-01
    1914,   3.125000e+00,  -5.000000e-01,  -5.000000e-01
    1915,  -3.125000e+00,  -5.000000e-01,   5.000000e-01
    1916,   2.083333e+00,   5.000000e-01,  -5.000000e-01
    1917,   1.250000e+00,  -5.000000e-01,   5.000000e-01
    1918,   1.041667e+00,  -5.000000e-01,   5.000000e-01
    1919,   2.708333e+00,  -5.000000e-01,   5.000000e-01
    1920,  -3.958333e+00,  -5.000000e-01,  -5.000000e-01
    1921,   3.737226e+00,   5.000000e-01,  -2.421121e-01
    1922,  -3.125000e+00,   5.000000e-01,  -5.000000e-01
    1923,  -5.000000e+00,  -5.000000e-01,   5.000000e-01
    1924,   3.958333e+00,  -5.000000e-01,  -5.000000e-01
    1925,  -3.958333e+00,  -5.000000e-01,   5.000000e-01
*ELEMENT, TYPE=C3D4, ELSET=EB1
       1,       1,       2,       3,       4
       2,       1,       5,       6,       7
       3,       1,       2,       5,       3
       4,       1,       3,       8,       9
       5,      10,      11,      12,      13
       6,      14,      15,      16,      17
       7,      13,      18,      12,      10
       8,      13,      19,      20,      21
       9,      13,      22,      19,      21
      10,       2,      23,       5,      24
      11,       2,       5,      23,      25
      12,       2,      26,       5,       3
      13,       1,      27,       2,       4
      14,       1,      27,      28,      25
      15,       1,      29,      28,      30
      16,      31,      32,      33,      34
      17,      31,      35,      36,      37
      18,      31,      38,      39,      36
      19,      31,      40,      38,      41
      20,      31,      42,      41,      32
      21,      43,      44,      45,      46
      22,      46,      43,      47,      45
      23,      43,      48,      49,      44
      24,      47,      46,      50,      43
      25,      51,      52,      53,      54
      26,      55,      56,      57,      58
      27,      50,      59,      60,      43
      28,      43,      60,      61,      59
      29,      43,      61,      47,      49
      30,      62,      63,      64,      65
      31,      66,      67,      68,      69
      32,      62,      70,      71,      72
      33,      73,      74,      75,      70
      34,      70,      74,      75,      76
      35,      62,      77,      78,      70
      36,      62,      70,      73,      71
      37,      79,      80,      81,      82
      38,      79,      80,      82,      83
      39,      79,      80,      83,      84
      40,      85,      79,      86,      81
      41,      87,      79,      88,      89
      42,      90,      91,      92,      93
      43,      51,      94,      95,      96
      44,      97,      51,      94,      95
      45,      52,      54,      51,      95
      46,      54,      51,      95,      96
      47,      96,      54,      51,      53
      48,      53,      96,      98,      99
      49,     100,     101,     102,     103
      50,      98,     104,      99,      96
      51,     105,      96,     106,      54
      52,      96,      95,      54,     105
      53,      96,      54,      98,     106
      54,     107,     108,     109,     110
      55,     107,     108,     111,     112
      56,     113,     114,     115,     116
      57,     107,     117,     112,     111
      58,     118,     119,     120,     121
      59,     118,     122,     119,     123
      60,     124,      91,     125,     126
      61,     127,     124,     105,     128
      62,     127,     124,     128,      91
      63,     124,     128,      91,     126
      64,     124,     127,     106,     129
      65,     130,     131,     132,     133
      66,     134,     135,     136,     137
      67,     124,     138,      91,     129
      68,     139,     140,     141,      98
      69,      93,     125,     142,     143
      70,      98,     140,      50,     144
      71,      98,     145,     140,     144
      72,      43,      98,      50,      59
      73,      98,     140,     141,     146
      74,      98,     106,      54,     146
      75,      98,      54,      53,     146
      76,     147,     148,     149,     150
      77,     151,     152,     153,     154
      78,     151,     152,     154,     155
      79,     156,     151,     157,     152
      80,     151,     158,     159,     160
      81,     151,     161,     152,     155
      82,     162,     163,     147,     164
      83,     151,     152,     161,     157
      84,     165,     166,     158,     167
      85,     165,     168,     169,     170
      86,     165,     166,     167,     171
      87,     165,     167,     169,     171
      88,       9,     172,     173,       8
      89,       8,       7,      30,     174
      90,     175,     176,     177,     178
      91,     179,     180,     181,     182
      92,     183,     142,     125,     184
      93,     175,     181,     182,     185
      94,     175,     186,     182,     180
      95,     175,     185,     182,     177
      96,     175,     180,     181,     187
      97,     188,     189,     190,     191
      98,     175,     180,     187,     192
      99,     163,     162,     148,     193
     100,     113,     194,     195,     134
     101,     134,     178,     176,     194
     102,     134,     194,     176,     196
     103,     134,     197,     194,     196
     104,     134,     135,     197,     176
     105,     134,     198,     199,     113
     106,      48,     200,     201,     202
     107,      48,      51,     200,     202
     108,     203,      43,      61,      59
     109,      48,     204,      49,     205
     110,      43,      48,      53,      99
     111,      48,     206,      99,     207
     112,      48,     200,     206,     205
     113,     208,     209,     210,     211
     114,     212,     213,     214,     215
     115,     215,     216,     213,     214
     116,     215,      63,     217,     218
     117,     215,     214,     212,     217
     118,     215,     214,     219,     216
     119,     220,     159,     221,     222
     120,     223,     224,     220,     225
     121,     220,     156,     159,     222
     122,     225,     223,     226,     220
     123,     227,     156,     225,     220
     124,     164,     228,     229,     230
     125,     220,     226,     227,     231
     126,     232,     233,     117,     234
     127,     232,     235,     236,     237
     128,     233,     238,     239,     232
     129,     232,     240,     233,     238
     130,     232,     240,     237,     241
     131,     232,     238,     242,     237
     132,       5,     243,      24,      23
     133,       5,       7,     244,       6
     134,     134,     178,     194,     195
     135,     213,     245,     246,     247
     136,     213,     245,     247,     248
     137,     213,     249,     246,      78
     138,     250,     251,     252,     253
     139,     254,     238,     255,     256
     140,     257,     258,     259,     260
     141,     257,     261,     262,     263
     142,     257,     262,     240,     233
     143,     257,     233,     240,     238
     144,     264,     265,     266,     267
     145,     268,     269,     270,     271
     146,     264,      67,     272,      66
     147,     264,     182,      67,     273
     148,     264,     182,     274,     275
     149,     264,     267,     275,     276
     150,     277,      66,     265,     272
     151,     278,     279,     280,     281
     152,     282,     283,     284,     285
     153,     284,     282,     286,     283
     154,     282,     287,     283,     285
     155,     282,     287,     288,     289
     156,     286,     282,       4,     283
     157,     126,     290,      93,     291
     158,     292,      93,     291,     293
     159,     294,     295,     279,     281
     160,     296,     297,     298,     299
     161,     299,     297,     130,     296
     162,     297,     300,     301,     298
     163,     131,     297,     298,     296
     164,     296,     299,     186,     130
     165,     297,     301,     131,     298
     166,     127,     302,     303,     304
     167,     127,     304,     192,     302
     168,     128,     127,     305,     105
     169,     124,     128,     183,     105
     170,     177,     302,     176,     192
     171,     302,     176,     192,     127
     172,     183,     104,      94,     124
     173,     306,     307,     308,     309
     174,     306,     310,     311,     312
     175,     306,     307,     309,     313
     176,     314,     309,     311,     308
     177,     309,     311,     308,     306
     178,     306,     312,     308,     315
     179,     316,     317,     318,     319
     180,     316,     319,     320,     317
     181,     321,     322,     323,     316
     182,     324,     321,     322,     323
     183,     323,     325,     321,     316
     184,     326,     327,     193,     328
     185,     163,     197,     329,     330
     186,     331,     332,     321,     333
     187,     332,     321,     333,     316
     188,     325,     316,     317,     318
     189,     316,     334,     319,     318
     190,     316,     333,     325,     321
     191,     335,     336,     337,     338
     192,     163,     330,     339,     197
     193,     336,     340,     341,     342
     194,     336,     343,     340,     337
     195,     344,     345,     346,     347
     196,     348,     349,     341,     350
     197,     336,     350,     349,     351
     198,     336,     350,     352,     338
     199,     117,      45,     241,      44
     200,      45,     353,      49,      47
     201,     109,      45,     354,     262
     202,      45,     109,     355,      46
     203,      45,     110,     109,      46
     204,     107,      45,     110,     109
     205,      45,     233,     117,     241
     206,     107,      44,      45,     117
     207,     175,     182,     186,     178
     208,     130,     299,     186,     356
     209,     186,     296,     130,     292
     210,     186,      67,     296,     178
     211,     186,     296,     292,     178
     212,     186,     357,     358,     180
     213,     334,     359,     360,     361
     214,     158,     362,     153,     156
     215,      11,     363,     364,     365
     216,      13,      11,      19,     366
     217,     367,     368,     369,     370
     218,      11,      12,     371,     363
     219,     365,      10,      11,      12
     220,     372,     373,     374,     375
     221,     372,     375,     376,     377
     222,     378,     379,     380,     381
     223,     375,     382,     383,     374
     224,     122,     375,     384,     382
     225,     382,     375,     384,     385
     226,     375,     120,     122,     384
     227,     240,     386,     237,     241
     228,      55,     387,      57,      56
     229,     238,     388,     258,     257
     230,     260,     258,     259,     386
     231,     389,     390,     391,     392
     232,     257,     238,     256,     233
     233,     257,     240,     262,     259
     234,     393,     394,     395,     337
     235,     394,     395,     337,     396
     236,     396,     397,     395,     337
     237,     396,     398,     395,     399
     238,     400,     401,     388,     396
     239,     396,     402,     394,     395
     240,     396,     395,     397,     254
     241,     403,     404,     405,     406
     242,     403,     407,     404,     406
     243,     403,     404,     407,     344
     244,     344,     408,     403,     409
     245,     403,     409,     404,     344
     246,     403,     410,     411,     412
     247,     403,     407,     410,     412
     248,     386,     413,     259,     414
     249,     413,     415,     353,     416
     250,     416,     386,     413,     415
     251,     386,     417,     258,     418
     252,     240,     237,     386,     258
     253,     415,     386,     413,     241
     254,     386,     237,     415,     418
     255,     419,     420,     421,     422
     256,     423,     392,     424,     391
     257,     422,     425,     426,     427
     258,     422,     428,     425,     427
     259,     422,     427,     421,     429
     260,     422,     427,     429,     430
     261,     431,     432,     433,     120
     262,     431,     434,      86,     435
     263,     436,     120,     432,     431
     264,     431,     434,     436,      81
     265,     431,      85,      86,      81
     266,     437,     438,     378,     345
     267,     257,     262,     256,     263
     268,     240,     238,     237,     258
     269,     238,     439,     242,     237
     270,     238,     400,     255,     440
     271,     238,     401,     400,     439
     272,     401,     388,     258,     238
     273,     257,     233,     256,     262
     274,     232,     233,     240,     241
     275,     282,     283,     289,       3
     276,     288,     441,     442,     443
     277,     288,     289,     444,      26
     278,     288,     289,     445,     444
     279,     282,     288,     287,     443
     280,     283,       4,       3,     282
     281,     282,     288,     279,     280
     282,     282,     279,     288,     443
     283,     288,     446,     447,     441
     284,     448,     449,     450,     451
     285,     390,     423,     391,     392
     286,     357,     450,     180,     293
     287,     452,     453,     454,      37
     288,     453,     454,      37,     455
     289,     454,     456,     457,     455
     290,     455,     458,     459,     460
     291,     455,     461,     462,     463
     292,     455,     459,     457,     463
     293,     461,     464,     171,     465
     294,     461,     454,     466,     467
     295,      51,     202,      53,      52
     296,      54,     208,     468,     209
     297,     209,      54,     469,      52
     298,     104,     105,      96,     106
     299,      96,      53,      51,      99
     300,      99,     104,     103,      96
     301,      54,     105,     470,     468
     302,      90,     471,     125,     143
     303,      54,     105,      95,     470
     304,     472,      85,     435,     473
     305,     472,      85,     474,     475
     306,     472,     474,     473,     476
     307,      12,     477,     478,     479
     308,     480,     371,     477,      12
     309,      13,      10,      11,     366
     310,      12,     481,      10,     482
     311,      12,      10,     481,     483
     312,     484,     218,     485,     486
     313,     484,     487,     218,     486
     314,     484,     488,     218,     489
     315,     152,     490,     491,      56
     316,     152,     491,     492,      56
     317,     152,     155,     493,     494
     318,     151,     154,     153,     495
     319,     152,     491,     490,     496
     320,     152,     491,     496,     157
     321,     283,       4,     497,       9
     322,     286,     283,     498,     284
     323,       4,     283,       3,       9
     324,     283,     499,     498,     500
     325,     283,     500,     284,     285
     326,     283,       3,       9,     499
     327,     431,      85,     120,     121
     328,      93,      90,     293,      92
     329,     375,     120,     383,     122
     330,     120,     432,     433,     119
     331,     120,     432,     119,     384
     332,     120,     377,     432,     384
     333,     501,     213,     502,     245
     334,     215,     216,     219,      78
     335,     214,     216,     503,     219
     336,     213,     501,     216,     245
     337,     214,     501,     503,     216
     338,     214,     504,     505,     501
     339,     504,     502,     506,     507
     340,     504,     505,     507,     508
     341,     504,     502,     509,     506
     342,     504,     505,     508,     510
     343,     504,     509,     511,     512
     344,     513,     431,     514,     432
     345,     515,     516,     517,     518
     346,     120,     122,     384,     119
     347,     431,     120,      81,     436
     348,     432,     519,     433,     119
     349,     432,     433,     520,     513
     350,     521,     522,     523,     524
     351,     521,     525,     526,     477
     352,     293,      90,     527,      92
     353,     521,     528,     529,     530
     354,     521,     529,     528,     531
     355,     521,     523,     522,     371
     356,     521,     525,     531,     526
     357,     521,     529,     524,     523
     358,     434,     435,     532,     533
     359,     434,     534,     535,     536
     360,     434,     537,     538,     539
     361,     434,      86,      80,      81
     362,     434,      86,     435,     533
     363,     434,     540,     541,     542
     364,     434,     540,      86,     533
     365,     168,     543,     170,     165
     366,     167,     166,     153,     544
     367,     167,     545,     169,     546
     368,     167,     546,     171,     544
     369,     167,     171,     546,     169
     370,     167,     545,     546,     547
     371,     548,     547,     549,     362
     372,     293,     449,     450,     448
     373,     458,     550,     551,     552
     374,     458,     459,     552,     551
     375,     458,     453,     553,     460
     376,     140,     554,     555,     141
     377,     140,     144,     556,     557
     378,     140,     141,     558,     554
     379,      98,     146,     141,     106
     380,     140,     139,     555,     145
     381,     559,      98,     104,      99
     382,     402,     395,     560,     394
     383,      93,     291,     293,     561
     384,     394,     335,     562,     563
     385,     338,     335,     394,     337
     386,     394,     562,     335,     338
     387,      93,     291,     561,     564
     388,     565,     338,     562,     393
     389,     394,     566,     567,     560
     390,     568,     569,     570,     571
     391,     568,     569,     571,     572
     392,     568,     573,     307,     308
     393,     564,     291,     574,     126
     394,     568,     575,     315,     308
     395,     153,     160,     495,     576
     396,     576,     577,     160,     578
     397,     168,     576,     577,     158
     398,     577,     168,     543,     579
     399,     580,     581,      78,     582
     400,     583,     320,     322,     584
     401,     583,     585,     251,     586
     402,     583,     584,     587,     586
     403,     583,     584,     588,     320
     404,     583,     320,     588,     589
     405,     488,      65,     590,     591
     406,     592,     422,     428,     593
     407,      63,     594,      62,     219
     408,      63,     488,     218,     581
     409,      63,      64,      65,     591
     410,     595,     596,     597,     598
     411,       2,     281,     599,     600
     412,       2,     282,       3,       4
     413,     600,      24,     601,     602
     414,       5,      26,     603,       3
     415,       2,      24,      26,     280
     416,       2,     600,     599,      24
     417,      24,     601,     602,     604
     418,     605,     342,     396,     335
     419,     335,     605,     342,     606
     420,     202,      53,      52,     469
     421,      54,     208,     210,      53
     422,      53,     607,     210,      46
     423,     200,      48,     201,     205
     424,      48,     201,      53,     202
     425,     608,     609,     610,     611
     426,     612,     608,     609,     610
     427,     611,     613,     614,     615
     428,     611,     616,     609,     617
     429,     611,     614,     610,     618
     430,     611,     610,     608,     618
     431,     619,     620,     621,     622
     432,     619,     530,     523,     623
     433,     332,     334,     188,     624
     434,     332,     625,     626,     627
     435,     367,     332,     359,     334
     436,     367,     332,     319,     628
     437,     332,     629,     625,     630
     438,      64,     631,     632,     633
     439,     631,     634,      77,      72
     440,     158,     166,     576,     153
     441,     495,     576,     635,     153
     442,     151,     152,     156,     153
     443,     151,     161,     160,     636
     444,     160,     636,     161,     637
     445,     160,     578,     637,     495
     446,     167,     362,     547,     544
     447,     362,     224,     549,     548
     448,     362,     224,     548,     225
     449,     362,     224,     225,     156
     450,     158,     362,     156,     224
     451,     362,     153,     638,     544
     452,     639,     640,     641,     642
     453,     643,     639,     642,     247
     454,     639,     643,     644,     247
     455,     645,     646,     647,      29
     456,     639,     248,     644,     648
     457,     639,     644,     248,     247
     458,     639,      28,      29,      30
     459,      29,     646,     647,     648
     460,     639,     648,      28,     248
     461,     180,     181,     182,     175
     462,     186,     358,     182,     180
     463,     568,     569,      35,     570
     464,     568,     453,     452,      37
     465,     568,     569,      33,      35
     466,     568,     571,     570,     649
     467,     581,     173,     650,     172
     468,     651,     581,     173,     650
     469,     172,     591,     581,     488
     470,       8,       9,       3,     173
     471,     499,     172,     173,       9
     472,     652,     488,     653,     499
     473,     484,     497,     486,     485
     474,       8,     581,     174,     654
     475,       8,     172,     173,     581
     476,     484,       9,     172,     499
     477,      28,      27,     655,     656
     478,      28,     657,     648,     658
     479,      28,     648,     656,     658
     480,     319,     322,     584,     659
     481,     319,     367,     370,     368
     482,     319,     660,     367,     368
     483,     318,     390,     346,     423
     484,     318,     360,     359,     660
     485,     318,     661,     325,     334
     486,     318,     390,     423,     661
     487,     318,     346,     390,     437
     488,     318,     360,     437,     390
     489,      19,     662,     663,     664
     490,      13,      19,      11,     522
     491,      13,     371,     525,      20
     492,      13,      19,     522,      20
     493,     665,      13,      12,     525
     494,      19,     663,      21,     664
     495,     366,     403,      19,     408
     496,      19,     366,     408,     662
     497,     666,     667,     668,     351
     498,     667,     350,     352,     351
     499,     667,     351,     352,     668
     500,     667,     352,     669,     668
     501,     387,      57,      56,     667
     502,      55,     669,      57,     387
     503,     667,     491,     387,     669
     504,      61,     670,     353,     671
     505,      61,     672,      49,     204
     506,     673,      61,     203,     204
     507,     215,     218,     217,     212
     508,      61,     673,     674,     675
     509,      35,     676,     677,     678
     510,      31,      37,      36,      39
     511,      35,     677,     676,      32
     512,     568,      31,     679,     308
     513,      31,      42,      32,      34
     514,     308,      39,      37,      31
     515,      35,     170,     680,     676
     516,      35,     678,     170,     676
     517,     307,     452,     681,     649
     518,     456,     458,     453,     307
     519,     307,     682,     313,     681
     520,     307,     683,     452,     456
     521,     306,     307,     313,     573
     522,     684,     621,     622,     309
     523,      64,     631,     633,     591
     524,     309,     550,     314,     622
     525,     309,     684,     550,     622
     526,     309,     685,     621,     313
     527,     458,     309,     456,     684
     528,     309,     682,     684,     685
     529,     324,     686,      83,     687
     530,     324,     688,     322,     321
     531,     689,     690,     691,     692
     532,     324,     686,     322,      83
     533,     324,      84,     687,      83
     534,     693,     694,     695,     696
     535,     436,     373,      80,     697
     536,     436,      81,     373,     377
     537,     431,     120,      85,      81
     538,     436,     372,     698,     377
     539,      80,     699,      84,     700
     540,      80,      84,     540,     700
     541,      80,      81,      82,     373
     542,     434,     436,     697,     537
     543,      80,     436,     697,     434
     544,      79,      81,      80,      86
     545,     434,     540,      80,      86
     546,      62,      70,      72,      77
     547,      76,     216,     701,      78
     548,      62,      78,      76,      70
     549,      76,     216,     503,     384
     550,      62,      74,     219,     594
     551,      76,     702,     503,      74
     552,       1,       2,      27,      25
     553,       8,     174,      30,     654
     554,       1,       8,       7,      30
     555,     641,     639,      29,     174
     556,       5,      25,       6,      23
     557,       1,       7,      29,      30
     558,     703,     704,     244,       7
     559,       5,     703,     705,     706
     560,     302,     177,     707,     708
     561,     302,     709,     710,     708
     562,     302,     177,     711,     192
     563,     712,     713,     714,     715
     564,     302,     716,     303,     304
     565,     302,     304,     717,     716
     566,     296,     272,     195,      67
     567,     299,     296,     718,     298
     568,     296,     194,     195,     719
     569,     525,     665,      20,     531
     570,     480,      12,     363,     371
     571,     480,     478,      12,     477
     572,      12,     477,     479,     720
     573,     721,     722,     723,     433
     574,      11,     522,     403,     724
     575,     665,      20,      13,     525
     576,     725,     726,     727,     728
     577,     109,     729,     233,     262
     578,     107,     109,     729,     233
     579,     109,     108,     730,     110
     580,     124,     100,     731,     138
     581,      96,     105,     104,      95
     582,     473,     726,     732,     694
     583,     104,     103,     100,     559
     584,     104,     129,     106,     733
     585,     182,     266,     177,     275
     586,     177,     178,     136,     266
     587,     302,     710,     717,     185
     588,     182,     179,     358,     734
     589,     177,     136,     176,     707
     590,     175,     711,     177,     192
     591,     302,     710,     185,     708
     592,     735,     176,     305,     290
     593,      91,     127,     290,     128
     594,     290,     196,     128,     735
     595,     127,     290,     305,     176
     596,     290,     176,     292,     736
     597,     292,     736,     291,     290
     598,     238,     256,     239,     255
     599,     238,     254,     400,     388
     600,     388,     400,     238,     401
     601,     396,     399,     737,     398
     602,     400,     737,     255,     440
     603,     165,     171,     168,     166
     604,     168,     570,     166,     466
     605,     165,     168,     158,     166
     606,     158,     738,     159,     160
     607,     158,     168,     576,     166
     608,      35,     170,     168,     680
     609,     576,     739,     680,     740
     610,     576,     168,     739,     166
     611,     168,     170,     579,     680
     612,     361,     741,     742,     743
     613,     361,     389,     744,     745
     614,     361,     389,     390,     391
     615,     746,     391,     742,     334
     616,     726,     732,     696,     728
     617,     361,     624,     747,     188
     618,     236,     748,     749,     750
     619,     236,     749,     751,     752
     620,     236,     672,     241,     753
     621,     236,     754,     755,     750
     622,     239,     233,     234,     256
     623,     109,     262,     756,     729
     624,     240,     233,     262,     413
     625,     107,     234,     112,     117
     626,     117,      44,     111,     107
     627,     233,     729,     234,     256
     628,     118,     123,     757,     758
     629,     118,     121,     759,     119
     630,     759,     121,     433,     119
     631,     759,     693,     433,     726
     632,     519,     760,     501,     520
     633,     519,     433,     595,     520
     634,     722,     726,     721,     727
     635,     350,     491,     222,     157
     636,     350,     496,     491,     157
     637,     350,     227,     491,     669
     638,     350,     349,     761,     348
     639,     350,     761,     491,     496
     640,     332,     626,     625,     762
     641,     625,     763,     627,     630
     642,     332,     625,     627,     630
     643,     625,     763,     764,     765
     644,     625,     762,     766,     767
     645,     625,     764,     763,     629
     646,     350,     157,     222,     768
     647,     152,     491,     157,     156
     648,     156,     157,     222,     491
     649,     224,     156,     158,     159
     650,     491,     387,     156,     492
     651,     491,     227,     222,     156
     652,      61,      47,     353,     670
     653,      49,     353,      61,      47
     654,     353,     241,      49,     672
     655,     353,     413,     416,     769
     656,     455,     461,      37,     462
     657,     241,     415,     353,     413
     658,     415,     675,     672,     353
     659,     134,     178,     136,     176
     660,     186,     178,     182,      67
     661,     175,     192,     177,     176
     662,     298,     356,     299,     297
     663,     297,     296,     131,     130
     664,     356,     770,     130,     297
     665,     357,     356,     771,     451
     666,     772,     773,     551,     552
     667,     186,     357,     180,     292
     668,     356,     358,     771,     774
     669,       1,       5,       8,       3
     670,       5,       7,     705,     703
     671,       1,       4,       3,       9
     672,      28,     485,       9,      30
     673,      28,      29,      25,     656
     674,      25,      27,     656,     775
     675,       2,     599,     281,      27
     676,     484,       9,     283,     497
     677,     282,     281,     295,     286
     678,     682,     456,     684,     776
     679,       2,     281,     282,       4
     680,       1,       4,       9,      27
     681,     398,     402,     395,     560
     682,     399,     254,     777,     778
     683,     458,     459,     551,     456
     684,     682,     779,     683,     456
     685,     458,     550,     684,     551
     686,     431,     536,     532,     513
     687,     431,     513,     532,     433
     688,     532,     433,     722,     725
     689,     532,     723,     535,     780
     690,     532,     722,     781,     725
     691,     254,     257,     238,     256
     692,     257,     782,     256,     254
     693,     388,     783,     417,     784
     694,       2,     280,     282,     281
     695,     388,     417,     401,     258
     696,     157,     161,     636,     785
     697,     157,     785,     786,     787
     698,     157,     768,     496,     788
     699,     157,     788,     787,     786
     700,     157,     789,     788,     786
     701,     364,     404,     389,     406
     702,     403,     344,     407,     412
     703,     365,      11,     404,     364
     704,     648,     790,     656,     791
     705,     775,       6,     792,     790
     706,      11,     403,      19,     366
     707,     366,     409,     404,     403
     708,     403,     404,     366,      11
     709,     157,     159,     222,     793
     710,     156,     638,     153,     152
     711,     159,     221,     793,     794
     712,     159,     795,     794,     738
     713,     220,     224,     796,     159
     714,     158,     224,     159,     795
     715,     795,     158,     738,     159
     716,     151,     158,     153,     156
     717,     158,     160,     576,     577
     718,     153,     544,     166,     610
     719,     151,     495,     155,     154
     720,     153,     610,     166,     635
     721,     335,     605,     606,     797
     722,     335,     402,     605,     797
     723,     605,     439,     401,     798
     724,     605,     606,     798,     401
     725,     605,     797,     799,     800
     726,     656,       6,     790,      29
     727,     333,     801,     802,     321
     728,     334,     333,     332,     188
     729,     333,     321,     331,     803
     730,     316,     325,     333,     334
     731,     333,     746,     804,     742
     732,     333,     321,     803,     801
     733,     805,     806,     360,     359
     734,     390,     344,     346,     392
     735,     437,     344,     346,     390
     736,     360,     334,     390,     318
     737,     805,     660,     360,     437
     738,     389,     360,     404,     806
     739,     476,     807,      88,     474
     740,     805,     359,     808,     806
     741,     361,     334,     390,     360
     742,     472,      85,      79,      86
     743,     128,     163,     735,     196
     744,     128,     736,     574,     196
     745,     290,      93,     192,      91
     746,     383,     809,     810,     811
     747,     383,     474,      85,     475
     748,     383,     474,     475,     812
     749,     383,     475,      85,     811
     750,     383,     810,     813,     814
     751,     383,     813,     812,     814
     752,     570,     739,     815,     571
     753,     461,     466,     168,     171
     754,     168,     570,     680,     739
     755,     569,     570,     739,     680
     756,     719,     329,     816,     133
     757,     194,     736,     196,     133
     758,     296,     194,     131,     130
     759,     194,     130,     133,     131
     760,     194,     196,     163,     133
     761,     120,      81,     436,     377
     762,     817,     818,     566,     560
     763,     431,     120,     433,     121
     764,     431,      86,      85,     435
     765,     472,      85,     473,     474
     766,     118,     473,     759,     121
     767,     118,     757,     473,     474
     768,      49,     203,      48,      43
     769,     236,      49,     241,     672
     770,     236,     205,      49,     204
     771,      43,      47,      61,      60
     772,      61,      49,     203,     204
     773,      43,      98,      53,     607
     774,      44,      45,     241,      49
     775,      43,     203,      99,      59
     776,     336,     349,     819,     351
     777,     340,     397,     342,     337
     778,     340,     820,     819,     821
     779,     388,     397,     340,     820
     780,     297,     130,     132,     770
     781,     180,     822,      92,     450
     782,     182,     185,     181,     823
     783,     175,     177,     711,     185
     784,     450,     824,     357,     180
     785,     180,     825,     450,     824
     786,     180,     358,     179,     824
     787,     182,     179,     180,     358
     788,     461,     466,     171,     467
     789,     466,     454,      37,     452
     790,     466,     454,     452,     826
     791,     617,     826,     827,     614
     792,     826,     827,     614,     466
     793,     466,     171,     827,     166
     794,     338,     565,     828,     352
     795,      43,      48,      44,      46
     796,      98,      53,     607,     146
     797,     607,      46,     829,     210
     798,     200,     830,     202,     831
     799,     200,     205,     832,     750
     800,     200,     833,     750,     832
     801,     200,     833,     834,     830
     802,     200,     206,     205,     750
     803,      79,     811,      85,     475
     804,     375,     122,     383,     382
     805,     373,     811,     383,      81
     806,      80,      84,     699,      83
     807,     398,     835,     402,     566
     808,     394,     395,     560,     393
     809,     607,     829,     836,     208
     810,      50,     140,     557,     144
     811,     837,     560,     567,     566
     812,      54,     305,     106,     105
     813,     140,     838,     558,     146
     814,     394,     335,     402,     396
     815,      54,     839,     305,     105
     816,     146,     208,     836,     839
     817,     135,     198,     840,     199
     818,     127,     305,     106,     303
     819,     127,     135,     176,     305
     820,     303,     141,     841,     135
     821,     135,     176,     136,     707
     822,     212,     487,     511,     486
     823,     842,     487,     511,     212
     824,     218,     485,     212,     843
     825,      63,     219,     217,     594
     826,     844,      65,     590,     488
     827,     215,     218,     843,     582
     828,     218,     217,     212,     842
     829,     215,     217,      63,     219
     830,      63,     488,     844,     842
     831,      63,     581,     591,     488
     832,     218,     581,     654,     582
     833,     845,     398,     846,     835
     834,       3,     283,     289,     499
     835,     289,     499,     287,     847
     836,      79,     687,      84,      83
     837,     431,     436,     434,     536
     838,     513,     431,     432,     433
     839,     472,     848,     849,     850
     840,     118,     121,      85,     473
     841,     121,     433,     725,     726
     842,     759,     726,     121,     473
     843,     432,     851,     852,     853
     844,     214,     503,     501,     505
     845,     504,     842,     212,     217
     846,     504,     501,     507,     505
     847,     501,     760,     854,     507
     848,     432,     851,     501,     852
     849,     215,      78,     213,     216
     850,     214,     504,     501,     502
     851,     214,     501,     213,     502
     852,     760,     501,     854,     245
     853,     501,     507,     851,     520
     854,      12,     483,     365,      10
     855,     363,     365,     483,     855
     856,     560,     856,     398,     857
     857,     363,     858,     371,     724
     858,     363,     859,     724,     405
     859,     363,     855,     364,     365
     860,     363,     364,     859,     405
     861,      11,     404,     366,     365
     862,      11,     403,     522,      19
     863,     456,     457,     455,     459
     864,     455,     456,     458,     453
     865,     560,     818,     857,     817
     866,     773,     552,     860,     459
     867,     459,     861,     551,     456
     868,     773,     551,     552,     459
     869,     862,     863,     864,     865
     870,     459,     457,     861,     456
     871,     746,     866,     391,     661
     872,     687,     323,     250,     867
     873,     391,     742,      17,     746
     874,     746,     742,      17,     868
     875,     746,     804,     869,     870
     876,     746,     804,     742,     868
     877,      28,      27,       9,     485
     878,       9,      30,     485,     654
     879,       1,       9,      28,      27
     880,       8,     654,     172,     581
     881,       8,      30,       9,     654
     882,     286,     497,       4,      27
     883,      84,     871,     872,     873
     884,       8,       9,     172,     654
     885,     639,     640,     248,     843
     886,     865,     850,     874,     875
     887,      28,     876,     248,     657
     888,       1,      30,      28,       9
     889,     484,     498,     499,     489
     890,       9,     485,      27,     497
     891,       1,      25,      28,      29
     892,      30,     582,     654,     174
     893,      30,     582,     640,     843
     894,     174,      30,     582,     640
     895,     729,     256,     877,     234
     896,     234,     256,     877,     239
     897,     234,     878,     729,     112
     898,     322,     584,     659,     879
     899,     849,     850,     865,     875
     900,     688,     316,     332,     880
     901,     316,     319,     628,     322
     902,     155,     161,     881,     882
     903,     155,     493,     883,     490
     904,     155,     154,     882,     884
     905,     885,     490,     886,     155
     906,     155,     154,     884,     612
     907,     155,     885,     883,     612
     908,     127,     290,     192,      91
     909,     135,     141,     841,     887
     910,     141,     305,     135,     303
     911,     332,     688,     880,     630
     912,     128,     305,     735,     105
     913,      86,     888,     533,      84
     914,      84,      86,     540,     533
     915,     324,     322,     879,      83
     916,      84,     323,     848,     888
     917,     871,      84,     533,     888
     918,      79,      84,     848,      86
     919,      79,      82,      81,     811
     920,      79,      88,     472,     687
     921,     848,     888,     323,     867
     922,     848,     687,     889,     867
     923,     848,      86,     890,     850
     924,      84,     848,     323,     687
     925,      80,     538,     891,     540
     926,      84,     848,      86,     888
     927,     892,     893,     894,     895
     928,     890,     888,     533,      86
     929,     288,     280,     444,     447
     930,     289,     499,     653,     173
     931,     658,     896,     897,     898
     932,     848,     865,     850,     890
     933,       2,      24,     280,     899
     934,       2,      24,     899,     600
     935,       5,       3,     603,     705
     936,       5,      23,     244,     243
     937,     888,     865,     890,     874
     938,       5,     603,      26,     706
     939,     280,     243,     900,      24
     940,     444,     243,     900,     280
     941,     281,     286,     901,     902
     942,       5,       7,     703,     244
     943,      24,     903,     280,     899
     944,      23,       2,     775,      24
     945,     279,     280,     281,     282
     946,     281,     280,     278,     899
     947,     519,     245,     904,     246
     948,     905,     519,     906,     245
     949,     863,     867,     865,     862
     950,     245,     854,     760,     907
     951,     213,     248,     247,     640
     952,     213,     214,     216,     501
     953,     245,     904,     246,     247
     954,     124,     104,      94,     100
     955,      98,     145,      59,     139
     956,      98,      59,     144,      50
     957,     559,      59,     139,      98
     958,      98,     140,     145,     139
     959,      53,      46,     210,     201
     960,      43,      50,     607,      46
     961,      96,     106,      98,     104
     962,      48,      53,     201,      46
     963,      48,      49,      44,     205
     964,     619,     480,     371,     477
     965,     908,     426,     909,     622
     966,     619,     623,     910,     909
     967,     426,     909,     622,     619
     968,     521,     523,     530,     529
     969,     521,     524,      20,     522
     970,     529,     524,     523,     911
     971,     523,     912,     623,     913
     972,     523,     913,     529,     911
     973,     529,     310,     913,     530
     974,     529,     914,     915,     916
     975,     529,     914,      20,     917
     976,     531,     529,     914,      20
     977,     521,      20,     524,     529
     978,     249,     918,      77,     580
     979,     919,     920,     701,     246
     980,     249,     580,     582,     174
     981,     921,     922,     323,     923
     982,     640,     249,     920,     246
     983,     249,     174,     582,     640
     984,     249,     701,     246,      78
     985,     480,     924,     420,     925
     986,     619,     621,     620,     926
     987,     371,     477,      12,     525
     988,     480,     371,     858,     910
     989,     159,     224,     796,     795
     990,     151,     153,     160,     495
     991,     151,     160,     159,     636
     992,     158,     795,     738,     543
     993,     153,     154,     494,     544
     994,     548,     223,     225,     224
     995,     362,     225,     548,     547
     996,     639,     648,     644,     646
     997,     245,     854,     907,     927
     998,     213,     245,     248,     502
     999,      28,     657,     248,     648
    1000,     248,     657,     927,     644
    1001,     248,     843,     502,     876
    1002,     927,     248,     245,     854
    1003,     569,     928,     739,     571
    1004,     913,     311,     530,     310
    1005,     310,     929,     916,     930
    1006,     931,     932,     933,     934
    1007,     310,     935,     312,     936
    1008,     310,     312,     935,     311
    1009,     310,     312,     929,     936
    1010,     937,     137,     272,     266
    1011,     137,     272,     266,     195
    1012,     134,     113,     194,     198
    1013,     290,     192,     292,     176
    1014,     134,     137,     195,     113
    1015,     296,     178,      67,     195
    1016,     195,     137,     938,     113
    1017,     272,     296,     719,     939
    1018,     195,     938,     719,     113
    1019,     134,     135,     176,     136
    1020,     118,     474,     383,     758
    1021,     569,     940,     575,     941
    1022,     757,     476,     474,     807
    1023,     942,     123,     943,     757
    1024,     940,     575,     944,     945
    1025,     757,     807,     758,     943
    1026,     946,     757,     123,     942
    1027,     123,     946,     947,     759
    1028,     940,     948,     949,     950
    1029,      31,      40,      39,      38
    1030,      40,     623,     311,     622
    1031,      40,     951,      41,     952
    1032,      40,     622,     314,     953
    1033,      31,      40,     679,     308
    1034,      40,     679,     311,     935
    1035,     318,     438,     317,     954
    1036,     325,     921,     320,     323
    1037,     325,     921,     955,     954
    1038,     813,     956,     957,     958
    1039,     318,     954,     325,     955
    1040,     316,     323,     325,     320
    1041,     316,     319,     332,     628
    1042,     316,     318,     325,     334
    1043,     523,     910,     959,     960
    1044,     623,     952,     961,     953
    1045,     623,     959,     909,     961
    1046,     623,     530,     311,     622
    1047,     521,     523,     619,     530
    1048,     523,     623,     959,     910
    1049,     623,     910,     909,     959
    1050,     523,     623,     530,     913
    1051,     364,     405,     962,     859
    1052,     963,     406,     962,     364
    1053,     660,     438,     318,     437
    1054,     365,     364,     404,     389
    1055,     364,     389,     964,     965
    1056,     365,     364,     389,     964
    1057,     841,     840,     966,     967
    1058,     305,     141,     106,     303
    1059,     841,     968,     966,     887
    1060,     841,     554,     887,     141
    1061,     135,     840,     841,     967
    1062,     317,     660,     969,     438
    1063,     568,     307,     649,     452
    1064,     453,     314,     553,      39
    1065,     458,     309,     550,     314
    1066,     458,     460,     553,     552
    1067,     455,     458,     456,     459
    1068,     312,     575,     308,     315
    1069,     310,     913,     311,     935
    1070,     621,     926,     477,     970
    1071,     621,     477,     971,     970
    1072,     619,     477,     621,     926
    1073,     621,     972,     313,     685
    1074,     306,     621,     973,     313
    1075,     620,     684,     621,     622
    1076,     619,     622,     621,     530
    1077,     527,     974,     975,     976
    1078,     871,     321,     323,     923
    1079,     324,     321,     873,     688
    1080,      80,     891,     700,     540
    1081,     324,     871,      84,     873
    1082,     871,     888,     977,     978
    1083,     871,     977,     872,     979
    1084,      83,     980,     811,      89
    1085,     980,      82,     981,     982
    1086,      83,     585,     982,     980
    1087,      80,      84,      86,     540
    1088,      79,      84,     687,     848
    1089,     983,     642,     984,     641
    1090,     982,      82,     981,     699
    1091,     215,     214,     217,     219
    1092,     501,     505,     852,     851
    1093,     213,     212,     502,     843
    1094,     215,     843,     213,     582
    1095,     519,     119,     216,     246
    1096,     519,     721,     433,     693
    1097,     214,     505,     504,     217
    1098,     249,     701,      77,     918
    1099,     701,     119,     123,     919
    1100,     213,     246,     249,     640
    1101,     701,     920,     918,     249
    1102,     701,     919,     123,     947
    1103,     983,     985,     986,     987
    1104,     701,     988,     947,     989
    1105,     733,     990,     991,     304
    1106,     304,     717,     992,     993
    1107,     304,     127,     192,     129
    1108,     423,     955,     994,     379
    1109,     302,     716,     710,     709
    1110,     709,     302,     716,     303
    1111,     127,     106,     304,     303
    1112,     378,     995,     996,     381
    1113,     303,     733,     106,     304
    1114,     290,     128,     736,     126
    1115,     192,     292,     176,     175
    1116,     290,     192,      93,     292
    1117,     736,     176,     292,     194
    1118,     525,      12,     665,     526
    1119,      20,     914,     997,     917
    1120,     521,     619,     523,     371
    1121,     521,      20,     371,     522
    1122,     917,     529,     911,     524
    1123,      13,      20,     522,     371
    1124,     371,      13,      12,      11
    1125,      19,     524,      20,     663
    1126,     924,     363,     858,     480
    1127,     371,     522,     724,     910
    1128,     858,     363,     859,     724
    1129,     998,     380,     999,     381
    1130,     403,      19,     408,     522
    1131,      19,     522,      20,     524
    1132,     109,     354,     355,    1000
    1133,     257,     258,     260,     784
    1134,     257,     240,     259,     258
    1135,     257,     261,     782,    1001
    1136,     262,     261,     756,     263
    1137,     262,     354,    1000,    1001
    1138,      48,      99,     203,     207
    1139,     236,     832,     205,     750
    1140,     200,     750,     833,     206
    1141,     205,      48,     201,      44
    1142,     205,      44,     834,     832
    1143,     205,     207,     748,     206
    1144,      91,      92,      93,     192
    1145,     164,     163,     147,     735
    1146,     128,     735,     164,     105
    1147,     192,     717,     993,     711
    1148,     357,     291,     292,     130
    1149,     264,     182,     275,     266
    1150,     192,      91,      92,     993
    1151,     290,      91,     126,      93
    1152,     260,    1002,    1003,    1004
    1153,     290,     128,     196,     736
    1154,     176,     196,     736,     290
    1155,     175,     711,     192,     187
    1156,     175,     180,     192,     292
    1157,     606,    1005,     797,    1006
    1158,     606,    1007,    1008,    1009
    1159,     606,    1010,     417,     783
    1160,     606,    1006,    1010,    1009
    1161,     170,    1011,    1012,    1013
    1162,     170,    1013,    1012,    1014
    1163,     170,     676,     678,    1014
    1164,     165,     543,     170,    1015
    1165,     165,     168,     171,     169
    1166,     169,     461,     678,     170
    1167,    1016,    1017,    1018,    1019
    1168,     570,     739,     166,     815
    1169,    1020,     286,    1021,    1022
    1170,     568,     570,      37,     452
    1171,     168,     466,     166,     171
    1172,     461,     464,     463,     457
    1173,     167,     544,     547,     546
    1174,     151,     158,     160,     153
    1175,     171,     546,     465,     464
    1176,     461,     467,     171,     464
    1177,     579,     168,     543,     170
    1178,     171,     166,     544,     827
    1179,     389,     745,     365,     744
    1180,     361,     745,     744,     624
    1181,     389,     965,     741,     744
    1182,     232,     239,     234,    1023
    1183,     117,      44,     832,     834
    1184,     117,      44,     834,    1024
    1185,    1025,     239,    1026,     234
    1186,     257,     254,     388,     782
    1187,    1024,      44,     111,     117
    1188,     107,     112,     234,     729
    1189,     140,     607,     838,     146
    1190,     607,     210,     829,     208
    1191,     124,     104,     105,     183
    1192,      46,     355,    1027,     730
    1193,      46,     201,      44,     110
    1194,      49,      44,      45,      43
    1195,     355,      47,      46,      50
    1196,     519,     907,     760,     595
    1197,     519,     595,     433,     721
    1198,     519,     246,     904,     919
    1199,     519,     919,     904,     693
    1200,     532,     121,     433,     725
    1201,     433,     723,     595,     513
    1202,     759,     919,     433,     693
    1203,     433,     721,     595,     723
    1204,    1028,     797,    1029,    1030
    1205,     378,     379,     423,     380
    1206,    1030,     563,    1031,     562
    1207,    1030,    1031,     563,    1029
    1208,     335,     563,    1030,     562
    1209,     338,     227,     669,     828
    1210,     338,     565,     562,     828
    1211,     394,     393,     338,     337
    1212,     350,     338,     341,     768
    1213,    1030,     338,    1032,     222
    1214,     159,     221,     222,     793
    1215,     220,     222,     221,     231
    1216,     222,     221,     231,    1033
    1217,     222,     221,    1033,    1034
    1218,    1030,    1033,    1029,    1028
    1219,     222,    1034,     789,     793
    1220,     256,     238,     239,     233
    1221,     238,     439,     400,     440
    1222,     418,     401,     258,     439
    1223,     713,     439,    1035,     799
    1224,     400,     401,     605,     439
    1225,     238,     242,     439,     440
    1226,     439,     242,     237,     235
    1227,     439,     235,     237,    1036
    1228,     414,     354,     769,     413
    1229,     240,     233,     413,     241
    1230,     240,     413,     386,     241
    1231,     378,     996,     995,     346
    1232,     258,     259,     386,     240
    1233,     413,     233,     262,      45
    1234,     175,     178,     186,     292
    1235,     180,     187,     192,      92
    1236,     175,     177,     182,     178
    1237,     186,     299,      67,     358
    1238,     182,     734,     358,     273
    1239,     264,     276,     274,     273
    1240,     823,     274,     734,     182
    1241,      67,     299,      69,     273
    1242,     424,     392,     423,     346
    1243,      68,     718,     299,      67
    1244,     264,      67,      66,     273
    1245,     201,      44,     110,     111
    1246,     201,      44,     111,    1024
    1247,     201,     202,     834,    1024
    1248,      46,     838,    1027,      50
    1249,     201,     205,     834,     200
    1250,     775,      27,    1037,     599
    1251,     409,     344,     360,     404
    1252,     484,     485,       9,     497
    1253,      24,    1038,     900,     903
    1254,       1,       6,      25,      29
    1255,    1037,     775,    1039,     656
    1256,     237,     753,     241,     415
    1257,     386,     237,     418,     258
    1258,    1040,    1041,     964,    1042
    1259,     238,     232,     240,     237
    1260,     237,    1043,     418,    1036
    1261,     365,     745,     806,      10
    1262,     619,     523,     910,     623
    1263,     619,     621,     477,     530
    1264,    1044,     924,     363,     858
    1265,     426,     550,     908,     427
    1266,     480,     420,     421,     925
    1267,     422,     420,     426,     425
    1268,     260,    1045,     784,     417
    1269,     605,     798,     606,    1006
    1270,     388,     417,     342,     401
    1271,     401,     798,     418,     417
    1272,     221,    1046,    1047,    1048
    1273,     221,    1047,    1033,    1034
    1274,     220,     222,     231,     227
    1275,     667,     350,     491,     669
    1276,     222,     221,    1034,     793
    1277,     393,     338,     562,     394
    1278,      19,     663,      20,      21
    1279,     365,     366,      10,     806
    1280,      11,     364,     363,     405
    1281,     389,     360,     390,     404
    1282,      11,     365,     366,      10
    1283,     404,     366,     806,     409
    1284,    1049,     366,     806,      10
    1285,     366,      10,    1049,      22
    1286,      13,      10,      22,      18
    1287,      21,     665,      20,      13
    1288,     484,     172,       9,     654
    1289,     172,     499,     173,     653
    1290,     289,     444,      26,     603
    1291,     289,    1050,     173,     653
    1292,     159,     636,     794,     793
    1293,     158,     160,     577,     738
    1294,     795,     159,     221,     796
    1295,     159,     221,     794,     795
    1296,     387,     227,     156,     225
    1297,     367,     318,     359,     660
    1298,     805,     366,     409,     806
    1299,     404,     392,     389,     406
    1300,     361,     334,     391,     390
    1301,     391,     742,     334,     361
    1302,     319,     317,     318,     660
    1303,     626,    1051,    1052,     359
    1304,     318,     359,     360,     334
    1305,    1053,    1054,    1055,    1056
    1306,     667,    1057,     491,     761
    1307,     158,     795,     543,    1058
    1308,     795,     543,    1058,    1059
    1309,     221,     795,    1048,     794
    1310,     221,    1048,     795,    1046
    1311,     364,    1040,    1060,     963
    1312,      19,     366,     662,      22
    1313,     389,     365,     964,     744
    1314,     364,     406,     389,     965
    1315,     366,     662,      22,    1061
    1316,     389,     359,     806,     745
    1317,     359,     745,     624,     626
    1318,     805,     359,     660,     367
    1319,     806,      10,     745,    1049
    1320,     808,    1049,     366,     806
    1321,     855,    1062,     483,    1063
    1322,     805,     808,     359,    1052
    1323,    1051,     745,     806,     359
    1324,     359,    1051,     808,     806
    1325,     135,     707,     841,     303
    1326,     290,     128,     305,     735
    1327,     147,     150,     468,     105
    1328,     105,     150,     468,     339
    1329,     735,     163,     150,     339
    1330,     735,     163,     147,     150
    1331,     128,     105,     164,     183
    1332,     146,     141,     305,     887
    1333,     735,     197,     196,     163
    1334,     134,     197,     135,     198
    1335,      54,      53,     146,     208
    1336,     735,     105,     147,     164
    1337,     105,     164,     183,     470
    1338,     150,     735,     105,     147
    1339,     305,     339,     105,     839
    1340,      91,    1064,      92,     993
    1341,      91,    1064,     138,     125
    1342,     290,      91,     128,     126
    1343,     302,     177,     176,     707
    1344,       8,     173,     705,     651
    1345,      63,     218,     582,     581
    1346,     581,     582,     174,     654
    1347,     532,     535,     723,     513
    1348,     476,     849,     732,     473
    1349,     759,     433,     121,     726
    1350,     473,     435,     850,     725
    1351,     203,      48,      43,      99
    1352,     361,     747,     744,     743
    1353,      45,      43,      47,      49
    1354,     201,     111,     210,     469
    1355,     111,     117,     112,    1024
    1356,     200,     832,     205,     834
    1357,    1061,     808,    1052,    1065
    1358,     396,     402,     395,     398
    1359,     394,     335,     563,     402
    1360,     394,     563,    1066,     402
    1361,     605,     799,     797,     402
    1362,     396,     401,     388,     342
    1363,     606,     417,     798,     401
    1364,     336,     340,     342,     337
    1365,     336,     335,     342,     341
    1366,     396,     337,     342,     397
    1367,     396,     395,     254,     399
    1368,     357,     293,     180,     292
    1369,     358,     824,    1067,     734
    1370,     704,    1054,    1068,    1055
    1371,     455,     458,     460,     453
    1372,     208,     209,    1069,    1070
    1373,     426,     622,     550,     620
    1374,     458,     551,     684,     456
    1375,     458,     550,     309,     684
    1376,     901,    1071,     690,     902
    1377,     940,    1072,     948,     950
    1378,     940,    1073,    1072,     950
    1379,     940,     575,     941,     944
    1380,     940,     941,     928,     949
    1381,     940,     941,     949,     948
    1382,      79,      80,      84,      86
    1383,     324,     699,      83,     879
    1384,     472,     435,      86,     850
    1385,     434,     533,     541,     540
    1386,     434,     542,     541,     534
    1387,      81,     373,     811,      82
    1388,     473,      85,     435,     121
    1389,    1074,     732,     476,     849
    1390,    1074,     476,     732,     694
    1391,     871,     321,     802,     801
    1392,     333,     801,     803,    1075
    1393,     319,     370,     659,     584
    1394,     206,     833,     831,    1076
    1395,     325,     923,     321,     870
    1396,     613,    1077,    1078,    1079
    1397,     613,    1080,     826,    1081
    1398,     613,     826,     614,    1081
    1399,     613,    1081,     614,    1082
    1400,     613,    1081,    1082,    1083
    1401,     954,     921,    1084,     317
    1402,     325,     317,     921,     954
    1403,     317,     921,    1084,     320
    1404,     921,    1085,    1086,    1084
    1405,     922,     686,     589,     921
    1406,     589,     921,    1084,     922
    1407,     218,     212,     485,     486
    1408,     218,     487,     489,     842
    1409,     511,     876,     509,     502
    1410,     486,     218,     212,     487
    1411,     214,     217,     504,     212
    1412,     504,     212,     511,     502
    1413,     212,     876,     843,     485
    1414,     631,     580,     581,      78
    1415,      78,     580,     582,     249
    1416,      11,     724,     363,     371
    1417,      63,     581,     582,      78
    1418,     218,     485,     654,     484
    1419,     249,     640,     920,     174
    1420,     213,     640,     582,     843
    1421,     418,    1087,     416,    1088
    1422,     946,    1089,     942,    1090
    1423,     418,    1010,     798,    1091
    1424,     439,    1036,    1035,     235
    1425,     439,     237,     418,    1036
    1426,     439,     798,     418,     401
    1427,     418,    1092,    1036,    1043
    1428,     416,    1093,     414,     386
    1429,     386,     260,     417,    1093
    1430,     386,     415,     237,     241
    1431,     739,     928,    1094,    1095
    1432,     570,     466,     614,     166
    1433,     576,     166,     815,     635
    1434,     570,     466,      37,     452
    1435,     168,     570,     739,     166
    1436,     569,     739,     570,     571
    1437,     570,     815,     166,     614
    1438,     335,     797,    1030,     563
    1439,     605,     606,     797,    1006
    1440,     797,    1096,     799,     800
    1441,     439,     605,     800,     798
    1442,     797,     800,    1097,    1098
    1443,     569,     575,     940,     572
    1444,     569,     940,     941,     928
    1445,     308,     568,      31,      37
    1446,     312,     945,     929,     936
    1447,     306,     308,     312,     311
    1448,     940,     945,     944,    1073
    1449,    1073,     945,     315,     940
    1450,     312,     945,     936,     944
    1451,     312,     308,     679,     311
    1452,     575,     679,      33,     941
    1453,     572,     575,     315,     568
    1454,     308,     568,     573,     315
    1455,     514,     513,    1099,    1100
    1456,     121,     473,     725,     435
    1457,     432,     436,     514,    1101
    1458,     514,    1099,     513,     597
    1459,     432,     514,     851,    1101
    1460,     514,     851,     597,     520
    1461,      12,     482,     720,    1102
    1462,      12,     479,     478,    1102
    1463,     720,     477,     526,      12
    1464,     619,     426,     926,     620
    1465,     504,     505,     510,     217
    1466,     619,     480,     926,     426
    1467,       8,     581,     651,     174
    1468,     248,     639,     843,      28
    1469,     215,      63,      78,     219
    1470,       8,     705,     173,       3
    1471,      30,     654,     843,     485
    1472,     499,     500,    1103,    1104
    1473,     173,       9,       3,     499
    1474,     118,     122,     120,     119
    1475,     215,     218,     212,     843
    1476,     384,     382,      75,     122
    1477,     122,     382,      75,    1105
    1478,      76,      75,     122,     384
    1479,     122,    1105,     989,     812
    1480,      76,     122,     119,     384
    1481,     118,     122,     123,     758
    1482,     122,     119,     123,     989
    1483,    1106,     321,     331,     630
    1484,     630,     688,    1107,    1106
    1485,     630,     688,    1106,     321
    1486,     320,     323,     322,     316
    1487,     324,     871,     873,     321
    1488,     688,     699,    1107,     700
    1489,     688,    1106,     700,    1107
    1490,     324,     879,     688,     699
    1491,      31,      35,     568,      33
    1492,     455,     453,     460,      37
    1493,      35,     676,     680,      33
    1494,     308,     568,     575,     679
    1495,      33,      31,     679,     568
    1496,      35,     676,      33,      32
    1497,      95,     183,     104,      94
    1498,     735,     196,     197,     176
    1499,     574,     163,     164,     128
    1500,     127,     707,     135,     303
    1501,     146,     106,     305,     141
    1502,      54,     105,     468,     839
    1503,    1022,     487,     498,     484
    1504,     888,     865,     874,    1108
    1505,     888,    1109,     874,     890
    1506,     848,     687,     867,     323
    1507,     888,    1108,     978,     867
    1508,     848,     888,     867,     865
    1509,     687,     889,     250,      87
    1510,      89,      79,      83,      87
    1511,     472,     889,     687,      88
    1512,     288,     289,    1110,     445
    1513,      24,     600,     599,     602
    1514,       4,      27,     281,     286
    1515,      24,     900,     280,     903
    1516,      24,      23,     243,    1038
    1517,     281,     689,     899,     294
    1518,     288,      26,     444,     280
    1519,     281,     286,     282,       4
    1520,       2,     281,     899,     280
    1521,     280,     447,     900,     444
    1522,     562,     393,     567,     565
    1523,     341,     768,    1111,     348
    1524,     350,     341,     348,     768
    1525,     213,     245,     216,     246
    1526,      96,     104,      94,      95
    1527,      70,      77,    1112,      72
    1528,     532,     781,     780,    1113
    1529,      51,      95,    1114,      52
    1530,      51,     202,    1114,     831
    1531,      99,     103,     559,     207
    1532,      98,      59,      99,     559
    1533,     200,      51,     831,     202
    1534,     568,      35,      37,     570
    1535,     679,     568,     575,      33
    1536,     466,     452,     614,     826
    1537,     307,     309,     314,     308
    1538,     954,    1115,     969,    1084
    1539,     722,    1116,     727,    1117
    1540,     307,     456,     682,     683
    1541,     307,     681,     452,     683
    1542,    1118,    1119,    1120,    1121
    1543,     452,     826,    1081,     614
    1544,     452,     681,     649,    1081
    1545,     621,     477,     530,     973
    1546,     671,    1122,    1123,    1124
    1547,     306,     973,     530,    1125
    1548,     736,     574,    1126,     291
    1549,     306,     530,     310,    1125
    1550,     523,     913,     911,     912
    1551,     521,     477,     526,     530
    1552,     524,     523,     960,     522
    1553,      12,     477,     526,     525
    1554,     531,     528,     521,     526
    1555,     316,     319,     322,     320
    1556,     805,    1127,     662,    1061
    1557,     318,     334,     390,     661
    1558,     374,    1128,    1129,    1130
    1559,     361,     334,     359,     624
    1560,     318,     437,     360,     660
    1561,     854,     760,     596,     507
    1562,     603,     706,     705,    1131
    1563,     162,    1132,     228,    1133
    1564,     862,    1134,    1135,     253
    1565,     319,     368,    1136,     660
    1566,    1085,    1086,    1137,    1138
    1567,     723,    1099,    1139,    1140
    1568,     940,     572,    1141,     928
    1569,     501,     503,     216,     852
    1570,     924,    1142,    1143,    1144
    1571,     581,     631,      78,      64
    1572,     502,     876,     509,     506
    1573,      76,     701,     989,      70
    1574,     216,     701,     246,     119
    1575,     854,     907,     927,    1145
    1576,     213,     249,     582,     640
    1577,     486,     876,     509,     511
    1578,      12,      10,      18,     482
    1579,      62,      76,      78,     219
    1580,     239,    1023,     232,    1146
    1581,     234,     117,    1023,    1026
    1582,    1147,    1148,     298,    1149
    1583,     234,     112,     117,    1026
    1584,     239,     877,    1150,     255
    1585,     232,     233,     241,     117
    1586,     200,     834,     202,     830
    1587,     960,    1151,    1152,    1153
    1588,     263,     256,     877,     729
    1589,     234,     729,    1154,     877
    1590,     232,     234,     117,    1023
    1591,     202,      52,    1114,    1155
    1592,     216,     384,     852,     503
    1593,     218,     654,     581,     488
    1594,     212,     502,     843,     876
    1595,     640,     904,     246,    1156
    1596,     640,     174,     641,    1157
    1597,     640,     920,     174,    1157
    1598,     639,     640,     174,     641
    1599,     213,     248,     843,     502
    1600,     639,     248,     640,     247
    1601,    1158,    1159,    1160,      38
    1602,     186,     357,     356,     358
    1603,     249,    1018,     580,     174
    1604,     920,     246,    1156,     640
    1605,     193,     329,     327,     148
    1606,     133,     328,     329,     816
    1607,     640,     246,     904,     247
    1608,    1161,    1162,    1163,    1164
    1609,     309,     622,     314,     311
    1610,     915,     911,    1165,    1166
    1611,     523,     530,     529,     913
    1612,     619,     523,     371,     910
    1613,    1064,     138,    1167,    1168
    1614,      40,     314,     622,     311
    1615,     140,     556,     554,     558
    1616,     717,     992,    1169,    1170
    1617,      40,     623,     953,     952
    1618,     426,     550,     622,     908
    1619,    1171,    1172,    1173,    1174
    1620,       3,       2,     280,     282
    1621,     173,     705,     651,    1175
    1622,    1176,    1177,    1178,    1179
    1623,     172,     488,     653,     591
    1624,     218,     488,     842,     489
    1625,     117,     112,    1024,    1026
    1626,     484,     499,     172,     488
    1627,     289,     499,     173,       3
    1628,      52,      53,      54,     469
    1629,     172,     581,     654,     488
    1630,    1180,    1181,    1182,    1183
    1631,     215,     212,     213,     843
    1632,     484,     654,     218,     488
    1633,      24,      23,     792,     775
    1634,     755,    1184,    1185,    1186
    1635,     555,     554,    1187,    1188
    1636,     157,     636,     793,     786
    1637,     288,     447,     444,     445
    1638,     684,     776,    1189,    1190
    1639,    1174,    1191,    1192,    1193
    1640,     280,       3,     288,      26
    1641,     883,    1194,    1195,    1196
    1642,     600,    1197,     899,    1198
    1643,      24,     903,     601,     604
    1644,    1198,    1199,    1200,     600
    1645,     602,      24,     775,     599
    1646,     600,     899,    1197,     601
    1647,     281,     899,     689,    1200
    1648,     600,    1200,     599,     602
    1649,     568,     570,     452,     649
    1650,     458,     309,     307,     456
    1651,     220,     223,     226,    1201
    1652,     307,     453,     456,     452
    1653,    1098,     714,    1202,    1203
    1654,      40,     314,     311,     308
    1655,     453,     308,     314,      39
    1656,     953,     314,     553,     622
    1657,     530,     973,     526,     528
    1658,     298,    1148,    1204,    1205
    1659,      96,     104,     103,      94
    1660,    1126,    1206,     561,    1207
    1661,     619,     480,     910,     371
    1662,    1147,    1149,    1208,    1148
    1663,     423,     318,     955,     378
    1664,      96,      51,      94,     103
    1665,      51,     206,      97,     103
    1666,    1209,    1210,    1211,    1212
    1667,    1027,     270,    1213,    1214
    1668,     966,     836,    1215,    1216
    1669,    1209,     972,    1217,    1218
    1670,    1209,     972,    1219,     685
    1671,     938,     115,    1220,    1221
    1672,    1209,     682,    1211,     681
    1673,    1209,    1217,     972,     313
    1674,    1209,     682,     681,     313
    1675,     839,    1222,    1223,    1070
    1676,    1224,    1225,     713,    1226
    1677,    1043,    1092,    1227,    1087
    1678,     417,     258,     784,     260
    1679,    1109,     781,     890,     533
    1680,     532,    1113,     533,     781
    1681,      22,    1228,     664,      21
    1682,    1144,    1229,    1230,    1231
    1683,     533,     434,     535,     532
    1684,     434,     532,     431,     536
    1685,     533,    1109,    1113,    1232
    1686,      79,     472,     848,     687
    1687,     435,     434,     532,     431
    1688,     124,     183,     731,      94
    1689,     472,     848,     687,     889
    1690,      79,     472,     475,      85
    1691,     533,    1109,    1232,     977
    1692,    1233,    1234,    1235,    1236
    1693,     871,     888,     978,     323
    1694,     426,     550,     427,     425
    1695,     712,     713,     715,    1225
    1696,     872,      84,     533,     871
    1697,      40,     952,     953,     951
    1698,    1237,    1238,    1239,    1152
    1699,     107,     117,      45,     233
    1700,      43,      53,      48,      46
    1701,    1126,     564,    1207,     561
    1702,      43,      98,      99,      53
    1703,     718,    1240,    1241,    1205
    1704,     449,     561,    1126,    1206
    1705,      43,      50,      47,      60
    1706,     144,      50,      59,      60
    1707,     771,    1242,    1243,    1244
    1708,      61,      59,      60,     674
    1709,    1245,    1246,    1011,    1013
    1710,     829,     211,    1247,    1069
    1711,    1248,    1249,    1250,    1251
    1712,     254,     395,     778,     399
    1713,    1245,    1252,    1013,    1253
    1714,     712,    1098,     800,    1096
    1715,     275,    1254,     267,    1255
    1716,     204,     673,    1256,    1257
    1717,     201,     469,     202,    1258
    1718,     139,    1259,    1260,    1261
    1719,    1262,    1245,    1059,    1263
    1720,     887,     554,     968,    1264
    1721,     841,     554,    1188,     968
    1722,    1245,    1265,    1263,    1262
    1723,     226,    1201,     231,     220
    1724,     139,    1266,    1261,    1260
    1725,    1245,    1011,    1267,    1059
    1726,     453,      39,     553,     460
    1727,     568,      33,     569,     575
    1728,      40,     314,     308,      39
    1729,     306,     315,     308,     573
    1730,     312,     935,     311,     679
    1731,     237,     418,    1043,     415
    1732,     312,     679,     575,     944
    1733,     383,     122,     812,     382
    1734,     809,     373,    1129,    1268
    1735,     809,     374,    1129,     373
    1736,     490,     883,    1269,    1194
    1737,     809,     811,      82,     980
    1738,     809,     980,      82,    1270
    1739,     809,    1270,     373,    1268
    1740,      79,      85,     811,      81
    1741,     688,     699,      84,     324
    1742,     546,    1271,    1272,    1273
    1743,     687,      87,     250,     686
    1744,     924,    1274,    1142,    1144
    1745,    1141,    1275,     572,     649
    1746,      84,     872,     533,     540
    1747,     848,     849,     850,     865
    1748,      61,     673,     672,     204
    1749,     118,     120,      85,     121
    1750,     687,      87,      79,      88
    1751,      89,      83,     585,      87
    1752,     995,     347,     346,     996
    1753,    1276,    1277,    1127,    1278
    1754,      76,      78,     701,      70
    1755,     245,     854,     248,     502
    1756,     900,    1279,    1280,    1281
    1757,    1282,    1283,    1284,    1179
    1758,     871,     802,     923,     978
    1759,     444,    1285,     933,    1286
    1760,     501,     245,     519,     216
    1761,     900,    1286,     933,    1280
    1762,      76,     216,      78,     219
    1763,    1050,    1175,     603,     173
    1764,     289,     173,     603,       3
    1765,     243,    1287,    1286,    1288
    1766,       7,     174,     705,    1016
    1767,     174,     705,    1016,     651
    1768,     689,     902,     690,    1289
    1769,     215,     582,     213,      78
    1770,    1200,     690,    1071,    1290
    1771,     603,     705,    1175,    1131
    1772,    1200,     691,     690,    1290
    1773,     283,     500,     498,     284
    1774,      62,      63,      78,      64
    1775,      60,     671,     674,    1291
    1776,     248,     854,     876,     502
    1777,     139,    1266,     559,     733
    1778,      98,     140,     607,      50
    1779,      43,      53,      46,     607
    1780,    1292,     559,      59,     139
    1781,     823,    1293,    1294,    1249
    1782,      90,     143,    1295,     471
    1783,     318,     954,     378,     438
    1784,     139,     145,    1259,    1296
    1785,     298,    1205,    1297,    1148
    1786,    1126,    1132,    1207,     564
    1787,     139,     716,    1296,    1261
    1788,     104,     139,     559,     733
    1789,     736,    1126,     574,     193
    1790,     339,    1223,     330,     150
    1791,     139,     555,    1296,     716
    1792,     824,     179,     825,    1298
    1793,     555,     139,     140,     141
    1794,     194,     736,     133,     130
    1795,     201,     210,     111,     110
    1796,      93,     143,     142,     564
    1797,    1299,     266,    1255,     136
    1798,     291,     290,      93,     292
    1799,     193,     329,     328,     327
    1800,     196,     163,     133,     193
    1801,     162,     327,    1132,    1133
    1802,     128,     574,     736,     126
    1803,     770,     326,    1300,    1207
    1804,     196,     163,     193,     574
    1805,     318,     955,     378,     954
    1806,     326,    1301,     327,     328
    1807,     356,     358,     774,     299
    1808,     403,     410,     522,     411
    1809,    1146,    1186,    1302,    1303
    1810,     291,     574,    1126,     564
    1811,    1304,    1305,     239,    1146
    1812,     346,    1306,     424,     392
    1813,    1307,     349,    1057,     351
    1814,    1233,     149,    1235,    1308
    1815,     273,    1309,     734,    1162
    1816,      60,    1310,     355,     670
    1817,     349,     761,    1311,    1057
    1818,     349,    1307,    1311,     819
    1819,     242,    1146,     238,     232
    1820,    1146,     255,     238,     239
    1821,     396,     605,     401,     342
    1822,     254,     255,     399,    1312
    1823,     468,     209,    1070,    1308
    1824,     877,     256,     255,     239
    1825,     255,    1304,     239,    1146
    1826,     399,    1312,     777,     254
    1827,     359,     762,     367,    1052
    1828,     255,    1150,    1304,     856
    1829,     290,     735,     176,     196
    1830,     756,    1313,    1314,    1154
    1831,     748,    1315,    1316,    1256
    1832,     163,     133,     193,     329
    1833,     124,     104,     106,     105
    1834,    1233,    1235,    1317,    1308
    1835,     183,     184,     731,      94
    1836,     183,     126,     125,     142
    1837,     124,     128,     126,     183
    1838,     105,     470,     183,      95
    1839,      52,    1234,    1114,    1155
    1840,     183,    1318,      94,      95
    1841,     397,    1319,     777,     778
    1842,    1318,     183,     470,      95
    1843,     183,     142,     574,     126
    1844,     660,    1320,     437,    1277
    1845,     732,    1321,     696,     728
    1846,     183,     574,     229,     164
    1847,     360,     344,     409,     437
    1848,     741,    1322,    1323,      17
    1849,     264,     182,     273,     274
    1850,     197,     135,     305,     176
    1851,     175,     176,     178,     292
    1852,     305,     197,     735,     339
    1853,     736,     196,     193,     574
    1854,     134,     196,     176,     197
    1855,      45,     670,     353,      47
    1856,     372,    1324,     376,    1129
    1857,     166,     610,     827,     614
    1858,    1038,    1325,    1179,     604
    1859,    1326,    1327,    1268,    1270
    1860,    1328,    1329,    1330,    1331
    1861,     795,     796,    1046,    1058
    1862,     250,     589,     251,     253
    1863,    1085,    1138,    1332,    1333
    1864,     160,     636,    1334,     738
    1865,     160,    1334,     578,     577
    1866,     514,    1335,    1100,    1099
    1867,    1336,    1101,    1337,    1338
    1868,     153,     495,     154,     635
    1869,    1106,     803,     189,     331
    1870,    1093,     894,     892,     893
    1871,    1106,     189,     630,     331
    1872,    1339,    1340,    1341,    1342
    1873,      45,     353,     670,     413
    1874,     800,     439,     713,     799
    1875,    1343,    1107,    1344,     700
    1876,     239,     877,    1345,    1346
    1877,    1106,     803,    1347,    1343
    1878,     672,      49,     353,      61
    1879,     236,     204,      49,     672
    1880,    1304,    1348,     856,    1150
    1881,     238,     439,     237,     258
    1882,    1025,    1349,    1345,    1350
    1883,     439,    1036,     418,     798
    1884,     799,     845,    1035,    1225
    1885,     107,     234,     233,     729
    1886,     658,     655,     897,    1351
    1887,     236,     752,     237,     235
    1888,     469,     211,     209,    1352
    1889,     413,     354,     259,     414
    1890,     207,    1256,    1316,    1257
    1891,    1353,    1354,    1355,    1356
    1892,     560,     857,    1357,     778
    1893,    1233,      52,    1234,    1236
    1894,     759,     433,     919,     119
    1895,      76,     989,     122,      75
    1896,     784,    1358,    1004,    1003
    1897,     122,     758,     989,     123
    1898,     876,     657,     854,     248
    1899,     349,    1359,     819,    1311
    1900,     432,     514,     513,     520
    1901,     519,     693,     904,     721
    1902,     263,    1360,    1154,     877
    1903,     399,     777,     856,     778
    1904,     118,     759,     757,     123
    1905,     399,    1150,     856,     777
    1906,     919,    1361,    1156,     693
    1907,    1006,    1362,    1363,    1091
    1908,     768,    1180,     788,     789
    1909,     338,     227,     562,    1032
    1910,    1311,    1057,    1364,    1365
    1911,     350,     157,     768,     496
    1912,     157,     222,     789,     793
    1913,    1098,    1202,     714,    1366
    1914,     335,    1005,     341,     768
    1915,     997,     917,     914,    1367
    1916,     548,    1368,    1369,    1370
    1917,     997,     914,    1371,    1372
    1918,      20,     997,     663,     917
    1919,    1373,    1374,     226,     828
    1920,     491,     227,     387,     669
    1921,    1375,    1364,    1376,    1377
    1922,     350,     338,     669,     352
    1923,     227,    1374,     225,     387
    1924,     547,    1378,    1379,    1271
    1925,    1033,    1380,    1031,    1381
    1926,     220,     224,     159,     156
    1927,     156,     225,     492,     387
    1928,    1276,    1061,    1382,    1383
    1929,      28,     843,     248,     876
    1930,     336,     350,     351,     352
    1931,     157,     636,     159,     793
    1932,     972,    1384,    1218,    1385
    1933,     262,     354,    1001,     259
    1934,     354,    1000,    1386,     355
    1935,     109,    1000,     262,     354
    1936,     236,     753,     237,     752
    1937,     353,     769,     416,     675
    1938,     660,     969,     438,    1320
    1939,     625,     629,     762,     767
    1940,     482,    1387,    1388,    1389
    1941,      45,     109,     354,     355
    1942,     357,     180,     824,     358
    1943,     130,     186,     357,     356
    1944,      64,      72,      71,    1390
    1945,     357,     824,    1391,    1392
    1946,     296,     178,     194,     292
    1947,     296,     272,      67,     718
    1948,     298,     296,     718,     131
    1949,     719,     113,     194,     195
    1950,     195,      67,     272,     266
    1951,     774,     298,     356,     299
    1952,     296,     194,     719,     131
    1953,     111,     112,     108,     878
    1954,     107,     110,     111,     108
    1955,     110,     111,     108,    1393
    1956,    1394,    1395,    1396,    1397
    1957,     201,    1398,     111,     469
    1958,    1127,    1399,    1278,    1400
    1959,     111,    1398,    1024,     112
    1960,     201,     111,    1398,    1024
    1961,     107,      44,     111,     110
    1962,     478,    1401,    1402,    1142
    1963,     200,     834,     201,     202
    1964,     155,     495,     161,     882
    1965,     551,     772,     861,     773
    1966,    1037,     281,     599,      27
    1967,    1245,     543,    1058,    1013
    1968,     118,     758,     383,     122
    1969,     532,     535,     533,    1113
    1970,     997,    1371,     914,      21
    1971,     662,    1061,    1278,    1403
    1972,     532,     535,    1113,     780
    1973,     532,     121,     725,     435
    1974,     472,     435,      85,      86
    1975,     759,     757,     123,     946
    1976,    1404,    1387,    1172,    1405
    1977,     911,    1165,    1166,    1406
    1978,     658,    1407,     791,     896
    1979,     431,     433,     532,     121
    1980,    1408,     936,     929,    1409
    1981,     473,     725,     850,     732
    1982,     524,    1151,    1410,    1411
    1983,     118,      85,     474,     473
    1984,     606,     783,     417,     342
    1985,     335,     402,     797,     563
    1986,     257,     388,     784,     782
    1987,     388,     340,     821,     820
    1988,     439,     400,     799,     605
    1989,     396,     335,     402,     605
    1990,    1412,    1413,     860,     773
    1991,    1209,    1414,    1210,    1212
    1992,     396,     401,     605,     400
    1993,     799,     605,     800,     439
    1994,    1415,     772,    1413,     592
    1995,     464,    1416,    1272,    1417
    1996,     973,    1418,    1419,    1420
    1997,     457,     861,     456,    1421
    1998,     796,     159,     221,     220
    1999,     491,     492,      56,     387
    2000,     157,     636,     786,     785
    2001,     548,    1368,    1058,     549
    2002,     425,    1189,     428,    1422
    2003,     636,     637,     785,     161
    2004,     160,     636,     637,    1334
    2005,     457,    1416,    1412,     773
    2006,     901,     902,     690,     689
    2007,     805,     366,     806,     808
    2008,      10,    1423,     745,    1049
    2009,    1424,    1425,    1426,    1427
    2010,     336,     343,     351,     819
    2011,     676,    1428,    1429,    1159
    2012,     282,     285,    1430,     287
    2013,     296,     718,     939,     272
    2014,     161,    1431,     881,     882
    2015,      32,      38,      36,     677
    2016,    1432,    1433,    1434,    1435
    2017,     464,    1436,    1417,    1272
    2018,    1189,     425,     428,     772
    2019,     550,     551,     425,     684
    2020,    1328,    1330,    1329,    1437
    2021,     133,     194,     719,     329
    2022,     178,     266,     195,     136
    2023,     296,     178,     195,     194
    2024,     194,     131,     133,     719
    2025,     296,     131,     939,     718
    2026,     788,    1438,    1439,     787
    2027,     788,    1440,     496,    1441
    2028,     768,     761,     496,    1440
    2029,     788,    1439,    1440,    1441
    2030,    1215,    1442,    1443,    1216
    2031,     500,     284,    1394,     498
    2032,     282,    1328,     443,    1430
    2033,     499,     847,     652,    1103
    2034,     183,     184,     229,     142
    2035,     500,    1394,     285,    1444
    2036,     500,     285,     287,    1445
    2037,     500,     498,    1444,    1104
    2038,     295,    1437,    1446,    1289
    2039,     716,     733,     990,    1261
    2040,     198,     840,     199,    1447
    2041,     500,    1445,     287,    1103
    2042,     723,     721,     595,    1448
    2043,    1448,    1117,     722,    1449
    2044,    1448,    1450,    1451,    1452
    2045,    1448,     907,     595,     598
    2046,    1448,    1452,     906,    1450
    2047,    1448,    1450,     907,     598
    2048,     921,    1085,     923,     955
    2049,    1084,     317,     969,     954
    2050,     282,     289,     283,     287
    2051,    1209,     681,    1211,    1453
    2052,     465,    1454,    1455,    1436
    2053,      11,      12,     363,     365
    2054,     588,     969,     320,    1136
    2055,     333,     803,     331,    1075
    2056,     333,     332,     188,     331
    2057,     493,    1194,     490,      56
    2058,     319,     317,     660,    1136
    2059,     318,     660,     317,     438
    2060,     332,     629,     880,     628
    2061,     318,     955,     325,     661
    2062,     334,     367,     332,     319
    2063,     340,     336,     341,     819
    2064,     325,     921,     317,     320
    2065,    1193,     765,    1192,    1174
    2066,     567,    1355,     566,    1456
    2067,    1432,    1379,    1433,    1435
    2068,     279,     278,    1457,    1458
    2069,    1379,    1459,    1460,    1370
    2070,    1174,    1423,    1051,     626
    2071,    1424,    1461,    1462,    1463
    2072,     636,     637,    1334,     786
    2073,    1174,    1173,    1171,    1191
    2074,    1174,     626,    1192,    1191
    2075,    1174,    1173,    1193,    1172
    2076,    1174,     766,    1051,    1172
    2077,     656,    1464,     790,    1465
    2078,     442,     445,    1466,    1467
    2079,    1174,     625,     626,     766
    2080,     493,     883,     490,    1194
    2081,     493,    1194,      56,      58
    2082,     493,     494,    1195,    1468
    2083,     580,    1018,     634,    1019
    2084,     493,      56,    1469,      58
    2085,     689,    1289,     690,     692
    2086,    1282,    1283,    1288,    1280
    2087,     278,    1470,     446,    1457
    2088,     152,      56,     493,     490
    2089,     591,      65,     590,    1471
    2090,    1439,    1472,    1473,    1474
    2091,     900,    1281,    1470,    1475
    2092,    1021,    1022,    1476,    1020
    2093,     286,    1037,     902,    1021
    2094,     788,    1439,    1180,    1440
    2095,    1439,    1474,    1180,    1472
    2096,    1439,     787,    1438,    1477
    2097,     580,     634,    1018,     918
    2098,     983,     987,    1478,    1479
    2099,     788,    1183,    1439,    1438
    2100,    1037,    1351,    1480,    1481
    2101,    1282,    1286,    1280,    1288
    2102,    1439,    1473,    1472,    1477
    2103,    1279,    1283,    1482,    1284
    2104,    1053,    1054,     647,     645
    2105,    1181,    1180,    1028,     789
    2106,     788,    1439,    1441,     787
    2107,     410,    1237,    1483,    1484
    2108,     522,     410,    1237,     411
    2109,    1089,    1485,     946,    1074
    2110,     286,    1486,    1021,     902
    2111,     410,     407,     962,    1487
    2112,     403,     408,     412,     411
    2113,     644,     643,     646,    1488
    2114,     131,     133,     301,     132
    2115,     403,     522,     410,     724
    2116,     770,    1126,     326,    1207
    2117,     410,     412,    1489,     411
    2118,     625,     763,     630,     629
    2119,    1248,    1251,    1250,    1490
    2120,     763,     627,     630,    1491
    2121,     763,     627,    1492,    1493
    2122,     763,    1494,     765,    1493
    2123,     497,     283,     498,     286
    2124,    1495,    1496,    1497,    1498
    2125,    1248,    1254,    1490,    1250
    2126,    1499,    1494,     764,    1500
    2127,     763,    1491,    1500,    1494
    2128,     215,      63,     218,     582
    2129,    1501,     712,    1225,     799
    2130,     837,    1357,     560,     818
    2131,     837,     565,    1355,     567
    2132,     837,     566,     567,    1355
    2133,    1354,    1502,    1355,     818
    2134,    1502,    1355,     818,     837
    2135,     795,     738,    1048,     794
    2136,    1176,    1288,    1177,    1287
    2137,     854,     927,     657,    1145
    2138,     599,    1503,    1465,     602
    2139,     362,     156,     225,     638
    2140,     795,     543,    1059,     738
    2141,     158,     543,     738,     577
    2142,     862,    1504,    1505,    1506
    2143,      76,     216,     219,     503
    2144,     636,     738,     794,    1334
    2145,    1353,    1373,     828,    1434
    2146,    1353,    1373,    1434,    1356
    2147,    1353,    1502,    1355,    1354
    2148,    1312,     256,     255,     877
    2149,     729,     112,     878,     108
    2150,     938,     719,     113,     115
    2151,     202,    1258,      52,    1155
    2152,    1507,    1250,    1251,    1490
    2153,    1292,     673,    1257,    1508
    2154,     234,    1154,     878,    1345
    2155,     567,     562,     565,    1353
    2156,     555,     303,     141,    1188
    2157,    1353,     828,    1509,     562
    2158,     213,     249,      78,     582
    2159,     510,     512,    1510,    1511
    2160,    1353,     565,    1355,    1502
    2161,     967,     968,    1512,    1513
    2162,      46,     829,     730,    1514
    2163,    1353,    1356,    1515,    1354
    2164,     510,     508,    1516,    1517
    2165,     730,    1393,     108,    1314
    2166,     156,     158,     159,     151
    2167,     559,    1518,    1266,    1260
    2168,     469,    1519,     211,    1352
    2169,    1168,    1520,    1167,    1064
    2170,    1521,    1259,    1522,    1523
    2171,      50,    1310,     557,    1213
    2172,     559,    1518,    1260,    1257
    2173,     154,     635,     495,    1524
    2174,     155,     154,     612,     494
    2175,     152,     155,     494,     154
    2176,    1292,    1257,    1260,    1508
    2177,     492,      55,     387,    1374
    2178,    1525,    1313,    1526,    1314
    2179,     494,     493,     492,    1468
    2180,     492,     494,     638,     152
    2181,     709,    1527,    1188,    1187
    2182,    1468,     494,     638,     492
    2183,     492,     387,      55,      56
    2184,     152,     490,     155,     161
    2185,     672,    1528,     204,     673
    2186,     349,     341,     350,     336
    2187,     679,    1529,    1530,      34
    2188,    1276,    1382,    1061,    1127
    2189,     100,     129,     733,     991
    2190,     755,    1531,    1532,    1185
    2191,     895,    1533,     892,    1534
    2192,     510,     508,    1511,    1516
    2193,    1535,    1340,    1398,    1339
    2194,     101,    1536,    1537,    1538
    2195,    1539,     518,     517,    1276
    2196,     675,     673,    1124,    1528
    2197,    1276,    1382,     517,    1383
    2198,     241,      44,     236,     117
    2199,    1276,    1539,    1278,    1540
    2200,    1276,     368,     517,    1382
    2201,     368,    1276,    1127,    1382
    2202,     234,    1345,     877,    1154
    2203,    1541,    1316,    1315,    1542
    2204,     504,     501,     502,     507
    2205,    1541,     103,    1543,    1538
    2206,     281,     901,     286,    1037
    2207,     922,    1084,     589,    1135
    2208,      24,     604,      23,    1038
    2209,     383,     812,     122,     758
    2210,     922,    1135,     589,     253
    2211,      23,    1325,    1176,    1038
    2212,      23,    1056,     244,    1325
    2213,      75,     702,      74,    1544
    2214,     780,    1139,    1545,    1140
    2215,     889,    1506,     253,     252
    2216,     889,    1546,    1504,    1506
    2217,      24,     775,     792,     602
    2218,      23,    1038,     604,    1325
    2219,     382,     813,    1130,    1547
    2220,      23,     792,       6,    1056
    2221,     646,     639,      29,     645
    2222,     883,    1548,    1196,    1549
    2223,     344,    1400,     345,     347
    2224,     155,     490,     883,     885
    2225,     883,     612,    1550,     494
    2226,     493,     883,    1194,    1195
    2227,     862,     863,    1134,    1505
    2228,     487,    1551,    1022,    1552
    2229,    1435,    1379,    1553,    1432
    2230,     225,    1374,    1432,    1433
    2231,     362,     225,     547,     638
    2232,     725,     781,     728,     727
    2233,     802,    1554,    1555,    1556
    2234,    1432,    1373,    1434,    1374
    2235,    1557,    1487,    1558,    1559
    2236,    1432,    1560,    1373,     223
    2237,     626,    1192,    1191,    1561
    2238,    1432,    1373,    1435,    1434
    2239,    1326,      82,    1270,     373
    2240,     741,    1322,    1562,    1323
    2241,     423,     994,     866,     380
    2242,    1432,     547,    1379,     548
    2243,     638,    1432,    1379,    1433
    2244,    1563,    1138,     923,    1333
    2245,    1379,     638,    1378,     547
    2246,     501,     854,     245,     502
    2247,    1500,    1106,     630,    1107
    2248,     854,     876,     506,    1564
    2249,     422,     593,     419,    1231
    2250,     876,     854,     657,    1564
    2251,     854,     907,    1145,     596
    2252,     639,     843,      28,      30
    2253,     657,     854,     248,     927
    2254,     854,     657,    1564,    1145
    2255,    1097,    1028,     797,    1029
    2256,    1362,    1565,    1006,    1097
    2257,     797,    1097,    1006,    1005
    2258,    1097,    1362,     800,    1006
    2259,     476,    1546,      88,     807
    2260,    1500,    1566,    1491,    1343
    2261,      62,      64,      78,      77
    2262,    1567,    1568,    1569,    1570
    2263,      76,      62,      70,      74
    2264,     954,     438,     969,    1115
    2265,    1571,    1065,    1052,     766
    2266,     368,    1320,    1277,     518
    2267,     345,    1320,     437,     438
    2268,     858,    1044,    1229,     859
    2269,     926,    1143,    1142,    1402
    2270,    1572,    1041,     743,     744
    2271,     249,     701,      78,      77
    2272,     390,     404,     392,     389
    2273,     410,    1484,    1483,     962
    2274,     663,    1399,    1411,    1573
    2275,     701,      70,      78,      77
    2276,     392,    1562,    1574,     424
    2277,    1239,    1238,    1463,    1152
    2278,    1276,    1539,    1540,    1383
    2279,    1276,    1383,     517,    1539
    2280,      76,      75,      70,     989
    2281,     663,     408,     524,    1411
    2282,    1127,    1278,    1277,    1400
    2283,     384,     702,     503,      76
    2284,    1575,     952,     961,    1426
    2285,      70,    1105,      75,      73
    2286,     380,     999,     381,     379
    2287,      70,    1105,    1576,     989
    2288,     100,     991,     138,     129
    2289,     100,     559,    1518,    1266
    2290,     100,     733,    1266,     991
    2291,      36,    1577,    1455,    1578
    2292,    1332,    1134,    1135,     863
    2293,     917,    1410,     911,    1166
    2294,     364,     963,     859,     962
    2295,     959,    1462,    1579,    1580
    2296,     104,     559,     100,     733
    2297,     100,     559,     103,    1518
    2298,     526,    1420,    1581,    1582
    2299,    1394,    1583,    1397,    1396
    2300,    1394,    1020,     284,    1395
    2301,     456,     776,     779,     861
    2302,    1394,     284,    1022,     498
    2303,     505,     217,    1584,    1585
    2304,    1394,     498,    1552,    1586
    2305,     500,     285,    1394,     284
    2306,    1394,    1444,     498,    1586
    2307,     665,    1582,    1587,    1371
    2308,     914,    1588,     916,    1582
    2309,     407,    1589,     962,    1487
    2310,     997,    1367,    1590,    1591
    2311,     504,     510,     842,     217
    2312,     537,    1101,     436,    1336
    2313,     805,     409,     662,    1127
    2314,     915,    1592,    1367,    1166
    2315,    1336,     698,    1324,    1593
    2316,    1336,    1324,     697,    1594
    2317,     663,    1591,    1573,    1411
    2318,     774,    1243,    1161,    1067
    2319,     272,     718,      66,      67
    2320,    1336,    1594,     697,    1595
    2321,    1336,    1595,     537,    1338
    2322,     344,     360,     390,     437
    2323,     165,    1058,    1015,     549
    2324,    1596,    1597,    1598,    1599
    2325,    1575,      41,    1158,    1600
    2326,      41,    1575,    1158,      42
    2327,    1373,    1509,    1356,    1353
    2328,     180,     822,     825,     179
    2329,    1094,    1601,    1602,     949
    2330,     344,     409,    1400,     408
    2331,    1161,      69,    1163,     774
    2332,     344,     404,     392,     390
    2333,     546,    1273,    1378,    1271
    2334,    1568,     982,     585,     980
    2335,     940,    1141,    1073,    1603
    2336,     344,     412,    1400,    1558
    2337,     577,    1604,    1605,    1606
    2338,     344,     412,    1558,    1306
    2339,      41,      38,    1607,     951
    2340,     679,      34,    1530,      42
    2341,    1596,    1608,    1598,    1524
    2342,     911,     524,     523,     960
    2343,     523,     911,     960,     912
    2344,     940,    1603,    1073,     950
    2345,     680,    1601,    1429,    1609
    2346,     457,    1421,     454,     467
    2347,     910,    1579,     959,    1237
    2348,     677,    1578,    1610,    1160
    2349,    1047,    1611,     231,    1033
    2350,     523,     912,     960,     959
    2351,     910,     960,    1237,     959
    2352,     952,    1426,    1575,    1612
    2353,    1248,    1613,    1294,    1614
    2354,     578,    1596,    1599,    1597
    2355,    1550,     612,    1615,     609
    2356,    1601,    1609,     680,    1605
    2357,    1248,    1250,    1613,    1614
    2358,    1530,     944,     941,     679
    2359,    1553,    1379,     548,    1432
    2360,    1248,     275,     274,     823
    2361,     823,     185,    1249,    1248
    2362,     449,    1126,     561,     291
    2363,     170,    1015,     678,     169
    2364,    1248,    1251,     185,    1249
    2365,    1248,    1249,     823,    1294
    2366,    1304,    1616,     737,     856
    2367,    1248,     185,    1490,     275
    2368,    1614,     274,    1294,    1248
    2369,     606,    1617,     341,    1111
    2370,     396,     388,     397,     342
    2371,     818,     566,     560,     837
    2372,     563,     402,    1096,    1066
    2373,    1150,    1312,     777,     399
    2374,     386,     258,     417,     260
    2375,     254,     782,    1312,    1618
    2376,     254,     396,     388,     397
    2377,    1619,    1620,    1621,    1622
    2378,     388,     820,     821,    1618
    2379,     388,     340,     397,     342
    2380,    1374,    1623,    1434,      55
    2381,     562,    1031,    1380,    1456
    2382,     388,     254,    1618,     782
    2383,    1624,    1625,     783,    1045
    2384,    1183,     788,    1180,    1181
    2385,     938,    1626,    1221,    1220
    2386,     938,    1627,    1626,    1220
    2387,     195,     272,     938,     137
    2388,     938,     272,    1627,     937
    2389,     938,     115,     939,     719
    2390,     938,     939,     272,     719
    2391,    1221,     939,    1627,     938
    2392,     440,    1146,     255,     238
    2393,     938,     113,     114,     115
    2394,    1628,     650,    1629,    1630
    2395,    1180,    1005,     768,    1111
    2396,     768,     789,    1028,    1180
    2397,    1007,    1631,    1625,    1632
    2398,     605,     606,     401,     342
    2399,     357,     771,     358,    1067
    2400,    1633,    1634,     631,     632
    2401,     631,     650,    1634,    1633
    2402,    1276,    1383,    1540,    1403
    2403,     651,     631,     650,    1634
    2404,    1061,    1571,    1383,    1065
    2405,    1494,     764,    1500,     763
    2406,    1633,     650,    1634,    1630
    2407,    1633,     650,     653,     591
    2408,    1633,     633,     631,     591
    2409,    1633,     650,    1629,     653
    2410,     378,     423,     346,     995
    2411,     378,     954,     955,     379
    2412,     378,     954,     379,    1115
    2413,     942,     946,     947,     123
    2414,     996,     345,     346,     378
    2415,     378,     954,    1115,     438
    2416,    1547,    1635,     957,    1636
    2417,     375,     376,     385,    1129
    2418,     587,     585,     586,    1567
    2419,      55,     492,    1433,    1374
    2420,      68,    1205,    1637,    1163
    2421,    1623,    1374,     669,      55
    2422,    1374,     669,      55,     387
    2423,     667,     350,     351,     761
    2424,     130,    1126,     449,     291
    2425,     669,    1374,     227,     387
    2426,    1638,    1639,    1206,    1640
    2427,     225,     223,    1374,     226
    2428,     490,      56,     667,     491
    2429,     667,     387,     491,      56
    2430,     350,     227,     338,     222
    2431,     179,    1641,    1298,    1293
    2432,    1085,     867,    1333,     863
    2433,    1642,    1643,    1644,    1645
    2434,    1085,    1332,     863,    1333
    2435,    1085,    1086,     955,     921
    2436,     921,    1084,    1086,     954
    2437,    1085,    1086,    1084,    1137
    2438,    1085,    1332,    1138,    1137
    2439,     867,    1085,     923,     922
    2440,     325,     955,     921,     923
    2441,    1086,     994,     955,     379
    2442,    1086,     955,     994,    1138
    2443,     903,    1646,     601,    1284
    2444,    1647,    1290,    1648,     691
    2445,     921,     923,    1085,     922
    2446,    1138,     923,    1333,    1085
    2447,    1200,    1503,     602,    1199
    2448,    1086,     379,    1115,     999
    2449,     903,    1649,     601,    1646
    2450,    1282,    1179,    1038,    1288
    2451,     689,    1198,    1650,     691
    2452,    1038,    1179,    1284,     604
    2453,      24,     602,     792,     604
    2454,    1394,    1552,     498,    1022
    2455,    1085,    1135,    1137,    1084
    2456,    1086,     999,    1115,    1137
    2457,     983,    1156,     642,     920
    2458,     243,     706,     444,    1286
    2459,    1053,    1056,       6,     647
    2460,     162,    1133,     148,     327
    2461,     805,     360,     660,     359
    2462,     298,    1297,    1149,    1148
    2463,     805,     366,     662,     409
    2464,      19,     662,     664,      22
    2465,    1147,    1651,    1640,    1652
    2466,     264,     274,     276,     275
    2467,     299,     186,      67,     296
    2468,     574,    1126,     564,    1132
    2469,     662,    1061,    1403,     664
    2470,     662,     408,     663,    1399
    2471,     770,     449,    1126,    1206
    2472,     662,    1278,    1127,    1399
    2473,    1653,    1301,    1300,     326
    2474,     505,     852,     851,     853
    2475,     505,    1517,     853,     508
    2476,     326,     193,     133,     328
    2477,    1638,     449,    1206,    1639
    2478,     163,     330,     329,     148
    2479,     708,    1654,    1490,    1255
    2480,     100,     991,    1266,     102
    2481,     208,     468,    1070,     839
    2482,    1638,    1639,    1655,    1656
    2483,     297,     770,     300,    1638
    2484,     357,     130,     356,     449
    2485,    1638,     451,    1639,     771
    2486,     356,     451,    1638,     771
    2487,     125,     143,     471,     142
    2488,    1637,    1657,     277,     718
    2489,     100,     102,     138,     991
    2490,    1638,     771,    1297,     774
    2491,     829,     730,    1393,     110
    2492,     100,    1518,     103,     102
    2493,      95,    1114,    1318,      97
    2494,     829,     211,     208,     210
    2495,     468,    1308,    1070,     150
    2496,     468,    1070,     339,     150
    2497,     829,     208,    1069,     836
    2498,      43,      99,      98,      59
    2499,     731,     138,     125,     124
    2500,    1658,    1659,    1660,    1555
    2501,     840,    1661,     199,    1447
    2502,    1658,     868,    1662,    1075
    2503,     393,     778,    1357,    1663
    2504,    1658,     804,     868,    1075
    2505,     967,     136,    1299,    1512
    2506,    1658,     868,    1664,    1662
    2507,    1568,     982,     587,     585
    2508,     468,    1308,    1317,     209
    2509,      52,    1234,    1236,    1114
    2510,     470,    1236,    1318,    1114
    2511,     587,    1567,    1665,    1666
    2512,     164,    1236,     230,     229
    2513,    1658,    1664,    1660,    1659
    2514,    1258,    1667,    1535,    1352
    2515,     147,     150,     149,    1308
    2516,    1233,     147,     164,     230
    2517,     749,    1668,    1669,    1670
    2518,     194,     133,     163,     329
    2519,     751,    1670,    1256,    1528
    2520,     236,     832,     117,      44
    2521,      94,    1318,    1671,      97
    2522,    1258,    1155,    1340,    1667
    2523,     104,     733,     100,     129
    2524,     271,    1027,    1525,     730
    2525,     103,    1518,    1316,    1543
    2526,      94,    1671,    1318,     184
    2527,     748,    1670,    1315,    1256
    2528,     163,     148,     147,     150
    2529,     735,     128,     164,     163
    2530,     752,    1668,    1670,    1672
    2531,     163,     193,     148,     329
    2532,    1224,    1673,    1225,    1226
    2533,    1224,     754,     235,     752
    2534,    1224,    1674,    1675,    1673
    2535,    1224,     713,    1036,    1226
    2536,     320,     588,     589,    1084
    2537,    1224,    1226,    1036,     235
    2538,    1176,     703,     244,     706
    2539,    1176,    1676,     244,     703
    2540,     277,     939,    1627,    1221
    2541,    1113,     534,    1677,    1678
    2542,    1176,    1287,     243,    1288
    2543,    1176,     243,     706,     244
    2544,    1176,    1055,     244,    1676
    2545,      23,     243,    1176,     244
    2546,    1176,    1325,     244,    1055
    2547,     452,     826,     683,    1081
    2548,     535,    1099,    1100,    1139
    2549,     466,     826,     827,     467
    2550,     826,     827,     467,    1679
    2551,    1307,    1120,     343,     351
    2552,    1307,     351,    1375,     666
    2553,    1307,     819,    1680,    1311
    2554,     879,    1681,    1682,    1683
    2555,    1684,    1504,    1505,    1685
    2556,    1311,     349,    1057,    1307
    2557,    1307,     819,     343,    1118
    2558,     620,     420,    1422,     425
    2559,    1146,    1184,    1186,    1303
    2560,    1097,    1098,     800,    1366
    2561,     737,     845,     846,    1302
    2562,     938,    1686,     113,     137
    2563,     550,     622,     908,     553
    2564,     239,    1150,     877,    1346
    2565,      44,     205,     834,     201
    2566,    1025,    1349,    1346,    1345
    2567,     749,    1687,    1532,    1669
    2568,    1541,    1688,     206,    1076
    2569,     182,      67,     273,     358
    2570,     309,     684,     621,     685
    2571,     620,     970,    1689,     926
    2572,     550,     622,     684,     620
    2573,     255,     239,    1304,    1150
    2574,     755,    1531,    1185,    1184
    2575,    1690,     414,     354,     769
    2576,     621,     620,     970,     685
    2577,     966,    1222,     840,     839
    2578,     737,    1302,    1691,    1303
    2579,     560,     856,     857,     778
    2580,    1304,     239,    1305,    1346
    2581,     841,     887,     966,     840
    2582,     966,     968,     967,    1692
    2583,     560,    1357,     857,     818
    2584,     560,     398,     856,     778
    2585,     966,     887,     968,    1264
    2586,     966,    1443,    1264,    1692
    2587,     713,    1036,    1226,    1035
    2588,     398,     835,     817,     846
    2589,     799,     800,     712,     713
    2590,    1036,     713,     439,    1035
    2591,     398,     566,     817,     835
    2592,     393,    1693,    1663,    1357
    2593,    1029,    1694,    1695,    1622
    2594,     737,    1146,    1303,    1304
    2595,     712,     713,     800,     714
    2596,     349,     348,    1359,    1696
    2597,    1028,    1565,    1097,    1005
    2598,    1097,    1565,    1694,    1366
    2599,     828,    1623,    1515,    1434
    2600,     335,     341,     606,     342
    2601,    1363,     800,     798,     713
    2602,     277,    1657,    1697,      66
    2603,     395,     778,     560,     393
    2604,     560,     393,     778,    1357
    2605,     938,     937,    1627,    1220
    2606,     393,     352,    1663,    1693
    2607,    1224,    1036,     713,    1675
    2608,    1509,    1373,     828,    1353
    2609,     713,     715,    1225,    1675
    2610,     226,    1698,     231,    1201
    2611,    1344,    1699,    1700,    1701
    2612,     891,    1699,    1702,    1326
    2613,     891,     700,    1703,     699
    2614,     545,     465,     546,    1704
    2615,     891,    1705,    1702,    1701
    2616,     837,     393,     560,    1357
    2617,      80,    1702,     891,     538
    2618,     412,    1559,     410,    1489
    2619,     389,     965,     406,     392
    2620,     540,     700,    1706,     891
    2621,    1326,      82,     699,    1707
    2622,     780,    1117,    1545,    1116
    2623,     265,     266,     937,     272
    2624,     891,     700,    1344,    1703
    2625,    1391,     450,     448,    1708
    2626,     824,     825,     450,    1391
    2627,     483,    1709,    1710,    1062
    2628,    1391,    1711,    1392,     824
    2629,    1391,    1392,    1711,    1642
    2630,    1391,    1711,     825,     976
    2631,    1391,    1392,    1642,    1645
    2632,     743,    1712,    1322,      17
    2633,     408,    1151,    1411,    1713
    2634,     522,     410,     724,    1237
    2635,     720,    1587,    1581,    1714
    2636,     357,    1392,    1391,     451
    2637,    1391,    1392,    1645,    1715
    2638,    1543,    1537,    1542,    1538
    2639,      45,     413,     233,     241
    2640,     354,     670,    1386,    1690
    2641,     237,    1036,     235,    1043
    2642,     259,    1716,    1001,    1002
    2643,     952,    1406,    1426,    1612
    2644,      38,    1717,    1578,    1160
    2645,     170,    1011,     543,     579
    2646,     544,    1273,    1718,    1378
    2647,    1003,     259,     257,    1001
    2648,      45,     413,     670,     354
    2649,     545,    1704,    1369,    1454
    2650,     548,     223,    1719,    1553
    2651,     259,    1002,    1001,    1003
    2652,      37,      36,     462,     678
    2653,    1720,    1568,    1666,    1567
    2654,     227,     226,     225,    1374
    2655,     535,    1099,     513,    1100
    2656,    1014,    1721,    1722,    1723
    2657,     533,     535,     541,    1113
    2658,     535,    1139,     723,    1099
    2659,     677,    1723,    1610,    1578
    2660,     780,     532,     722,     781
    2661,    1013,    1721,    1015,    1253
    2662,     535,     534,     541,    1113
    2663,     535,     536,     534,    1100
    2664,     535,    1139,     780,     723
    2665,    1424,    1462,    1461,    1426
    2666,      61,     675,     353,     672
    2667,     410,    1237,    1484,     724
    2668,      59,      60,     674,    1521
    2669,      60,    1521,     144,    1724
    2670,    1160,    1159,    1610,     677
    2671,      60,    1725,     670,     671
    2672,      32,      42,    1158,      34
    2673,      61,      47,     670,      60
    2674,    1726,    1727,    1428,    1722
    2675,      38,    1160,    1607,    1717
    2676,     951,    1728,    1717,    1607
    2677,     307,     682,     309,     313
    2678,    1147,     298,    1148,    1729
    2679,    1653,    1300,    1652,     300
    2680,     737,     856,     255,    1304
    2681,     552,     772,     427,     551
    2682,     684,    1189,    1422,    1190
    2683,     568,     575,     569,     572
    2684,    1426,    1575,    1425,     961
    2685,    1147,    1651,    1149,    1640
    2686,    1094,     928,     941,     949
    2687,    1152,     959,    1237,     960
    2688,    1426,    1462,     959,     961
    2689,    1304,     737,    1616,    1691
    2690,     297,     298,    1638,     300
    2691,      18,    1388,    1228,    1371
    2692,     356,     770,    1638,     449
    2693,     297,     301,     300,     132
    2694,     300,     132,     301,    1653
    2695,    1466,    1467,    1730,     442
    2696,     442,    1731,     447,     445
    2697,     442,     445,    1467,    1731
    2698,     743,    1041,    1712,     747
    2699,     925,     429,    1732,     419
    2700,     910,    1732,     429,    1579
    2701,     428,     427,     592,     772
    2702,     442,     441,    1731,    1733
    2703,     441,    1734,    1733,     442
    2704,    1734,    1735,     442,     441
    2705,     399,     737,     856,     255
    2706,    1275,     572,     649,     571
    2707,     718,     277,      66,    1657
    2708,     718,    1637,    1736,     277
    2709,     277,    1637,    1736,    1737
    2710,     277,    1736,     939,    1221
    2711,     277,    1657,    1737,    1738
    2712,     928,    1739,    1094,    1740
    2713,     925,    1732,    1229,     419
    2714,     277,    1697,    1657,    1738
    2715,    1741,     285,    1583,    1742
    2716,     904,     905,    1743,    1744
    2717,     928,    1740,    1603,    1739
    2718,    1395,    1583,    1745,    1741
    2719,    1741,     284,    1486,    1395
    2720,    1741,    1746,    1745,    1446
    2721,     250,     252,     889,     253
    2722,     323,     250,     922,     686
    2723,     250,     589,     922,     686
    2724,    1097,    1098,    1366,    1029
    2725,     563,    1096,    1098,    1031
    2726,    1373,    1435,    1434,    1356
    2727,    1098,    1096,    1203,    1031
    2728,    1098,    1029,    1747,    1622
    2729,     712,     800,    1098,     714
    2730,    1748,    1495,     273,    1749
    2731,    1748,    1749,     274,    1614
    2732,    1294,    1614,    1750,    1748
    2733,    1613,    1294,    1614,    1750
    2734,    1748,    1751,    1495,    1750
    2735,    1271,     546,    1272,    1752
    2736,     945,     929,    1409,    1418
    2737,      35,     570,     168,      37
    2738,    1353,    1355,    1509,    1356
    2739,    1046,    1263,    1753,    1754
    2740,     940,     945,     315,     575
    2741,    1046,    1611,    1754,    1698
    2742,    1028,    1182,    1694,    1565
    2743,     940,    1603,     928,    1141
    2744,    1058,    1015,     549,    1253
    2745,     352,     565,     828,    1693
    2746,     637,     578,    1597,     495
    2747,     569,     941,      33,     680
    2748,     169,    1369,    1721,    1454
    2749,    1409,     944,    1072,    1755
    2750,    1094,     941,     680,    1601
    2751,    1047,    1034,    1048,    1756
    2752,     562,    1509,    1456,    1380
    2753,     578,    1596,    1757,    1599
    2754,     944,     945,    1409,    1073
    2755,     794,    1048,    1758,    1759
    2756,    1760,    1441,     785,     886
    2757,    1761,    1527,    1762,    1763
    2758,     198,     330,     339,    1223
    2759,     945,     315,    1764,    1073
    2760,    1305,    1346,    1025,    1349
    2761,     273,    1309,    1765,    1749
    2762,     273,    1765,    1766,    1749
    2763,     823,    1249,     181,    1293
    2764,    1305,    1025,    1767,    1349
    2765,     824,    1768,    1769,    1770
    2766,    1304,    1146,    1303,    1305
    2767,     277,    1697,    1771,    1627
    2768,     255,    1304,    1146,     737
    2769,    1657,    1772,    1637,    1738
    2770,    1691,    1304,    1303,    1773
    2771,    1304,    1346,    1773,    1348
    2772,    1638,    1655,    1149,    1656
    2773,    1568,    1774,    1570,    1720
    2774,    1775,     810,    1776,    1774
    2775,    1775,     810,    1777,    1776
    2776,    1775,     814,    1778,    1777
    2777,     133,     816,     301,     328
    2778,     811,    1775,      89,     980
    2779,     719,    1779,     816,     115
    2780,      35,     680,     168,     570
    2781,    1780,    1653,    1301,    1300
    2782,     494,     610,     544,     154
    2783,     770,    1207,    1300,    1206
    2784,     822,    1781,     825,    1298
    2785,     187,     992,    1782,    1169
    2786,    1067,    1768,     824,    1244
    2787,     734,    1293,    1769,    1751
    2788,     154,     612,     494,     610
    2789,     154,     612,     610,     884
    2790,     883,    1195,     494,    1550
    2791,     883,    1548,    1549,    1550
    2792,     612,    1615,     609,     608
    2793,     612,     608,    1548,    1615
    2794,     883,    1194,    1196,    1269
    2795,     883,     612,     885,    1548
    2796,      25,      23,       2,     775
    2797,      67,      68,      69,     299
    2798,     783,     784,    1358,    1045
    2799,    1498,    1749,    1765,    1309
    2800,     339,    1070,    1223,     150
    2801,     340,    1783,     783,     821
    2802,     783,     821,    1783,    1784
    2803,     274,     276,    1254,    1614
    2804,     606,     783,    1617,    1008
    2805,     186,     358,     356,     299
    2806,     277,     939,     272,    1627
    2807,     278,     280,     279,     446
    2808,    1657,    1772,    1738,    1785
    2809,     274,    1749,     276,    1614
    2810,    1748,    1294,     823,    1293
    2811,    1194,      56,     667,     490
    2812,    1194,    1375,      58,    1377
    2813,     885,     490,     883,    1269
    2814,     734,    1786,    1162,    1309
    2815,    1194,      58,    1196,    1377
    2816,    1748,    1614,    1750,    1749
    2817,     719,     116,     115,     816
    2818,     273,    1766,     276,    1749
    2819,    1626,    1627,    1221,    1771
    2820,     277,     939,    1736,     718
    2821,     710,     708,     709,    1654
    2822,     527,    1708,     974,    1787
    2823,     179,    1293,    1298,    1769
    2824,      69,    1772,    1163,    1637
    2825,    1657,      66,     718,      68
    2826,    1657,      69,      66,      68
    2827,    1248,    1614,    1254,    1250
    2828,     272,     277,     718,     939
    2829,     187,     711,     993,     992
    2830,     185,    1251,    1169,    1249
    2831,     275,    1254,    1255,    1490
    2832,     823,     179,     734,    1293
    2833,     450,    1708,    1787,     448
    2834,     277,    1627,     272,     265
    2835,    1296,    1187,    1763,    1527
    2836,      93,     143,     564,     561
    2837,     329,     194,     719,     116
    2838,     127,     135,     707,     176
    2839,     357,    1392,    1067,     824
    2840,     357,    1067,    1392,     771
    2841,     264,    1766,     265,     276
    2842,     199,    1686,     113,     114
    2843,     469,     202,    1258,      52
    2844,    1024,    1026,    1341,    1531
    2845,    1391,     451,     448,     450
    2846,    1391,     824,     825,    1711
    2847,    1391,     451,    1392,    1715
    2848,    1391,     824,     357,     450
    2849,    1431,     637,    1788,    1597
    2850,     357,     449,     293,     291
    2851,    1296,    1259,    1789,    1522
    2852,    1790,     637,    1788,    1431
    2853,     637,     787,    1790,    1438
    2854,     637,    1438,     786,     787
    2855,    1514,    1216,     836,    1247
    2856,     182,     177,     266,     178
    2857,     966,    1692,     840,    1661
    2858,     636,     785,     637,     786
    2859,     137,    1513,    1299,    1686
    2860,      69,    1766,    1785,      66
    2861,    1319,    1663,     397,     343
    2862,     399,     395,     778,     398
    2863,     397,     337,    1663,     778
    2864,    1737,    1791,    1771,    1738
    2865,     668,     352,    1663,     343
    2866,      28,     843,     876,     485
    2867,     141,     303,     555,     139
    2868,      26,     444,     243,     706
    2869,     340,     337,     343,     397
    2870,     341,     819,    1783,     340
    2871,     394,     335,     396,     337
    2872,     304,     717,     716,     990
    2873,    1248,    1254,     275,    1490
    2874,     305,     735,     105,     339
    2875,     797,    1097,    1029,    1098
    2876,     335,    1030,     768,     338
    2877,    1047,    1792,    1754,    1793
    2878,    1047,    1034,    1619,    1033
    2879,    1320,     660,     969,    1136
    2880,    1047,    1695,    1034,    1756
    2881,    1047,    1034,    1695,    1619
    2882,     955,     866,     994,     869
    2883,     370,     518,    1794,    1795
    2884,      73,    1390,      71,    1796
    2885,    1047,    1619,    1620,    1611
    2886,     221,    1033,    1047,     231
    2887,     538,     539,    1595,    1705
    2888,    1140,     722,     780,     723
    2889,     221,     231,    1047,    1046
    2890,     505,     510,     217,    1585
    2891,     487,    1510,    1797,    1798
    2892,     505,     853,    1517,    1799
    2893,       7,     704,    1053,     641
    2894,     759,    1361,     919,     693
    2895,    1105,    1576,     812,     957
    2896,     957,     382,     813,     812
    2897,     852,     702,     384,     376
    2898,    1105,     957,    1547,    1635
    2899,     476,    1504,    1546,    1800
    2900,    1547,     957,     382,     813
    2901,     813,    1636,    1547,     957
    2902,     852,     503,     702,    1584
    2903,     289,     653,    1628,    1050
    2904,     983,    1156,    1478,    1801
    2905,     699,    1703,    1707,    1682
    2906,    1628,     653,     847,    1802
    2907,    1628,     650,    1050,     653
    2908,    1628,    1629,     650,     653
    2909,     382,    1547,    1130,     385
    2910,    1628,    1630,    1629,    1803
    2911,    1126,     133,     132,     326
    2912,     374,     385,    1130,    1129
    2913,     326,     328,     133,     132
    2914,     326,     574,     162,    1132
    2915,     326,     162,     193,     327
    2916,      80,    1326,     373,      82
    2917,     812,     958,     813,     957
    2918,     326,     574,    1126,     193
    2919,     809,    1268,    1129,    1128
    2920,     850,     875,     728,    1804
    2921,     983,    1801,    1805,     987
    2922,     326,    1301,    1132,     327
    2923,     988,     701,     920,     918
    2924,     980,    1128,    1774,    1270
    2925,    1039,     599,    1465,     775
    2926,     478,    1142,    1063,    1401
    2927,     702,     385,     384,     376
    2928,     599,     775,    1039,    1037
    2929,     854,     506,     507,     596
    2930,    1039,     658,    1351,    1037
    2931,    1806,    1807,    1593,    1337
    2932,     540,    1808,     542,    1706
    2933,     872,     540,     700,    1706
    2934,     537,    1595,     539,    1338
    2935,    1039,     658,     656,    1464
    2936,    1039,    1351,    1464,    1809
    2937,     294,     279,    1330,    1458
    2938,    1136,    1795,     588,     969
    2939,     105,     468,     839,     339
    2940,    1556,    1108,     978,    1554
    2941,     745,    1709,     624,    1423
    2942,     809,    1268,    1128,    1270
    2943,     295,    1330,    1437,    1810
    2944,     210,      54,     469,     209
    2945,      48,     204,     207,     203
    2946,     848,     889,     849,     865
    2947,      53,     201,     210,     469
    2948,      53,      54,     469,     210
    2949,     127,     302,     176,     707
    2950,     368,    1320,     518,    1795
    2951,     607,     836,     829,    1514
    2952,     302,     177,     185,     711
    2953,      83,     982,     879,     699
    2954,     302,     177,     708,     185
    2955,     888,     867,     865,    1108
    2956,    1762,     716,    1527,     710
    2957,     901,    1037,     281,     599
    2958,     432,     436,    1101,     698
    2959,     541,    1677,     542,    1808
    2960,     710,     708,     275,     185
    2961,    1633,    1811,     633,    1471
    2962,     982,    1682,    1666,    1683
    2963,     710,     708,    1490,     275
    2964,     370,     659,     587,    1812
    2965,     710,     709,    1527,    1654
    2966,      82,     981,    1707,    1270
    2967,     757,     943,     942,     807
    2968,     710,    1170,    1251,    1507
    2969,    1813,    1814,    1111,    1008
    2970,    1813,    1617,    1111,    1180
    2971,     922,     323,     923,     867
    2972,    1813,    1617,    1180,    1440
    2973,     278,    1458,     899,    1649
    2974,    1625,    1815,    1816,    1008
    2975,     628,     369,     767,    1817
    2976,    1382,     517,    1383,    1571
    2977,     316,     332,     319,     334
    2978,    1813,    1008,    1815,    1814
    2979,     320,    1084,     969,     588
    2980,    1813,    1472,    1440,    1180
    2981,     388,     783,     340,     342
    2982,     388,     821,     784,     782
    2983,     664,    1228,    1818,    1371
    2984,     809,     811,     373,      82
    2985,     820,     343,     819,    1118
    2986,    1174,    1193,     765,     766
    2987,     340,    1783,     821,     819
    2988,    1052,     626,     762,     766
    2989,     388,    1618,     821,     782
    2990,     820,     397,    1319,    1618
    2991,     682,     683,     779,    1211
    2992,     307,     682,     681,     683
    2993,     294,     278,    1458,     899
    2994,    1209,     313,     681,    1453
    2995,     907,     595,     598,     596
    2996,     519,     907,     595,     721
    2997,    1118,     819,    1784,    1680
    2998,     907,     927,    1145,    1450
    2999,    1194,    1269,    1377,    1196
    3000,     519,     216,     245,     246
    3001,     245,     906,     644,     927
    3002,     819,    1311,    1359,    1680
    3003,    1029,    1381,    1031,    1747
    3004,    1495,    1750,    1496,    1498
    3005,    1495,    1750,    1498,    1749
    3006,     343,    1120,    1663,     668
    3007,    1035,    1186,    1226,    1302
    3008,     782,    1819,    1360,    1312
    3009,    1748,    1495,     734,     273
    3010,    1748,     274,     734,     823
    3011,    1748,     274,    1749,     273
    3012,    1786,    1751,    1497,    1495
    3013,     279,    1457,     278,     446
    3014,    1495,    1786,     734,    1309
    3015,     343,    1319,    1663,    1120
    3016,     335,     768,    1030,    1028
    3017,    1030,     222,     789,     768
    3018,     795,    1059,    1058,    1046
    3019,    1048,    1759,    1059,    1792
    3020,    1820,    1102,    1389,    1821
    3021,    1663,     397,     343,     337
    3022,     664,    1822,    1591,    1818
    3023,     344,     407,    1306,     392
    3024,     352,    1663,     343,     337
    3025,     343,     351,     668,     352
    3026,     292,     130,     186,     357
    3027,     738,     577,    1059,    1759
    3028,     629,     762,     767,     628
    3029,     451,    1715,    1639,    1823
    3030,    1107,    1499,    1681,     764
    3031,    1540,    1278,    1403,    1573
    3032,     940,    1072,     944,     948
    3033,     624,    1561,    1709,     747
    3034,    1242,     771,    1823,    1392
    3035,    1638,    1639,     451,     449
    3036,      13,      18,      22,      21
    3037,    1209,    1219,    1414,    1212
    3038,     357,     356,     451,     449
    3039,    1174,     626,    1051,     766
    3040,    1125,    1764,    1217,    1418
    3041,     451,     448,     449,    1639
    3042,     945,     929,     936,    1409
    3043,    1392,     451,    1823,    1715
    3044,    1638,    1297,     771,    1656
    3045,     663,    1410,    1591,    1411
    3046,     745,     483,    1709,    1423
    3047,     925,     924,    1144,    1229
    3048,    1304,    1616,    1348,    1691
    3049,     771,     774,    1243,    1297
    3050,     292,      92,      93,     293
    3051,     530,     306,     311,     621
    3052,    1304,    1305,    1773,    1346
    3053,     930,    1165,    1824,    1592
    3054,    1638,    1655,    1640,    1149
    3055,     908,    1728,    1580,    1825
    3056,     936,     930,     935,    1826
    3057,     771,    1067,    1244,    1243
    3058,     220,     222,     227,     156
    3059,    1102,    1827,    1402,    1401
    3060,      39,    1728,     553,    1828
    3061,    1638,     771,    1639,    1656
    3062,     681,    1829,    1081,    1830
    3063,     855,    1044,    1060,    1274
    3064,     306,    1125,     313,     973
    3065,     526,    1587,    1582,    1581
    3066,     452,     681,    1081,     683
    3067,     620,     684,    1190,     685
    3068,     805,     360,     409,     437
    3069,     453,     456,     452,     454
    3070,     960,    1461,    1152,     959
    3071,     682,     681,     683,    1211
    3072,     935,    1826,    1165,    1612
    3073,    1387,    1172,    1173,    1171
    3074,     620,    1689,    1190,    1422
    3075,      39,     460,    1577,    1828
    3076,     522,     910,     960,    1237
    3077,    1830,    1453,    1210,    1211
    3078,    1453,     681,    1211,    1830
    3079,     681,     313,     573,    1831
    3080,    1209,    1218,    1453,    1414
    3081,     972,    1419,    1217,    1218
    3082,     491,    1057,     490,     496
    3083,    1832,     683,    1830,    1211
    3084,     997,    1591,     917,    1367
    3085,    1334,    1759,    1758,    1833
    3086,     662,    1573,     663,     664
    3087,     997,     663,     917,    1591
    3088,     663,     664,    1573,    1591
    3089,     465,     464,    1272,    1436
    3090,    1596,    1757,    1599,    1598
    3091,    1603,     949,    1739,     950
    3092,     663,     917,    1591,    1410
    3093,    1834,     915,     914,    1588
    3094,      20,      21,     997,     914
    3095,      19,      22,     664,      21
    3096,     970,    1835,    1219,    1689
    3097,     663,     917,    1410,     524
    3098,     815,    1082,    1275,    1608
    3099,     332,     762,     625,     629
    3100,    1029,    1366,    1694,    1622
    3101,    1263,    1059,    1058,    1245
    3102,     763,    1500,    1491,     630
    3103,     766,     765,    1174,     625
    3104,     794,    1833,    1334,    1758
    3105,     627,     190,     630,    1491
    3106,    1192,    1561,     626,     627
    3107,    1174,    1192,     627,     765
    3108,    1702,    1836,    1705,    1595
    3109,     891,    1701,    1706,    1705
    3110,    1702,    1701,    1705,    1836
    3111,    1837,    1088,    1533,    1838
    3112,     802,     870,     321,     923
    3113,     802,     870,     923,    1839
    3114,     871,     978,     977,    1840
    3115,     802,    1554,     978,    1840
    3116,     802,    1556,     978,    1554
    3117,    1007,    1045,    1625,    1631
    3118,     402,     835,    1066,     566
    3119,    1312,     255,     399,    1150
    3120,     802,     978,    1556,     923
    3121,     802,    1840,     801,    1659
    3122,    1118,    1121,    1680,    1841
    3123,    1658,     802,     801,    1659
    3124,    1157,    1017,     704,     985
    3125,     640,    1157,     641,     920
    3126,     174,     920,     249,    1018
    3127,    1119,    1842,    1841,    1843
    3128,    1157,    1018,    1016,    1017
    3129,    1157,     920,    1018,    1479
    3130,     471,     731,     138,     125
    3131,     731,    1671,     101,      94
    3132,    1168,     138,    1167,     101
    3133,     221,    1047,    1034,    1048
    3134,     138,     471,    1064,    1167
    3135,     731,      94,     184,    1671
    3136,     751,     752,    1672,     753
    3137,     236,     751,     748,     204
    3138,     751,     748,    1256,    1670
    3139,     751,     753,    1672,    1528
    3140,      81,     375,     373,     377
    3141,     406,    1562,     392,     965
    3142,     407,     392,    1562,    1574
    3143,     436,     697,    1336,     698
    3144,     510,    1517,    1516,    1511
    3145,     698,     372,    1324,     376
    3146,     486,    1551,     509,    1844
    3147,     289,      26,       3,     603
    3148,       5,      23,       6,     244
    3149,    1103,     499,     287,     500
    3150,     603,     444,    1131,    1050
    3151,     651,    1634,    1019,     634
    3152,     372,     697,    1268,     373
    3153,    1589,     406,    1562,     407
    3154,     639,     645,     646,     643
    3155,    1050,     444,     289,     603
    3156,    1741,     284,     285,     295
    3157,     289,     603,     173,    1050
    3158,     173,       3,     705,     603
    3159,      12,     363,     365,     483
    3160,     447,     934,     931,     933
    3161,     410,     405,     962,     407
    3162,     917,     915,    1367,    1166
    3163,    1281,     933,     932,    1280
    3164,     591,     590,     652,    1471
    3165,     899,    1197,    1649,    1198
    3166,     662,     409,    1399,    1127
    3167,    1822,    1591,    1818,    1590
    3168,    1590,    1372,    1834,     997
    3169,    1394,    1395,    1397,    1020
    3170,     412,    1558,    1487,    1559
    3171,     511,    1845,     510,    1510
    3172,     997,     663,    1591,     664
    3173,     663,    1411,     524,    1410
    3174,    1178,    1288,    1179,    1283
    3175,     412,    1558,    1559,    1489
    3176,     442,    1735,    1730,    1466
    3177,    1282,    1038,    1284,     903
    3178,    1396,    1395,    1583,    1745
    3179,    1282,    1038,    1179,    1284
    3180,    1282,    1280,    1279,    1283
    3181,     420,    1231,     925,    1144
    3182,     420,     924,    1143,    1144
    3183,     422,     420,     425,    1846
    3184,    1650,     899,    1458,    1198
    3185,     620,    1422,     420,     926
    3186,     420,    1422,     425,    1846
    3187,     426,     620,     420,     926
    3188,     745,    1051,     626,     359
    3189,     295,    1486,    1289,    1446
    3190,     626,     745,     624,    1423
    3191,     365,     483,     964,     744
    3192,     483,     745,     744,     365
    3193,     405,     364,     406,     404
    3194,     689,    1289,     692,    1650
    3195,     294,    1458,    1810,    1650
    3196,    1289,     692,    1810,    1847
    3197,    1289,     294,     689,     902
    3198,     744,     483,     964,    1062
    3199,     412,    1558,    1306,    1487
    3200,     278,    1649,    1470,    1458
    3201,    1741,    1446,    1395,    1486
    3202,      23,    1325,     604,     792
    3203,    1633,     591,     653,    1471
    3204,    1289,    1650,    1810,     692
    3205,     745,     624,    1709,     744
    3206,    1742,    1848,    1329,    1849
    3207,     295,     294,    1810,    1289
    3208,    1746,     295,    1437,    1446
    3209,     441,    1850,    1851,    1734
    3210,    1049,     745,    1051,    1423
    3211,     660,     969,    1136,     317
    3212,     317,     954,     438,     969
    3213,     277,    1221,    1771,    1736
    3214,     378,     380,     423,     995
    3215,    1086,     954,     379,     955
    3216,     277,     265,      66,    1697
    3217,     574,     228,     142,     229
    3218,     199,    1852,    1513,    1686
    3219,     273,    1162,    1164,    1309
    3220,     134,     198,     194,     197
    3221,     199,    1513,    1852,    1692
    3222,     378,    1115,     379,     381
    3223,     122,     382,    1105,     812
    3224,     382,    1105,    1544,      75
    3225,     183,     184,    1318,     229
    3226,     137,     937,    1686,    1299
    3227,     710,    1762,     716,    1170
    3228,     407,    1487,    1306,    1574
    3229,     382,     374,     385,    1130
    3230,     382,     957,    1105,     812
    3231,     197,     330,     116,     329
    3232,     841,     303,    1512,    1188
    3233,      90,    1295,     143,    1787
    3234,     966,    1443,    1222,    1216
    3235,     382,    1105,     957,    1547
    3236,    1462,    1426,    1425,     961
    3237,     382,    1105,    1547,    1544
    3238,    1541,     207,     748,    1316
    3239,     839,    1070,    1069,    1222
    3240,     966,    1661,    1222,    1443
    3241,    1541,    1538,    1543,    1542
    3242,     966,     836,     839,     887
    3243,    1541,     206,     103,    1538
    3244,    1541,     207,     103,     206
    3245,    1271,    1704,    1370,     545
    3246,     304,     716,     733,     990
    3247,     111,    1519,    1393,     211
    3248,    1702,    1595,    1594,    1836
    3249,    1448,    1140,    1451,     598
    3250,      13,     522,      11,     371
    3251,     910,    1580,     959,    1579
    3252,    1853,    1140,    1451,    1117
    3253,     545,    1454,     465,    1704
    3254,     545,     547,     549,     548
    3255,     545,     465,     169,     546
    3256,     545,     547,    1271,     546
    3257,     951,     952,     961,    1575
    3258,     532,     434,     535,     536
    3259,     432,     853,    1101,     851
    3260,     852,     376,     698,    1799
    3261,     108,    1154,    1314,     878
    3262,     852,     377,     698,     376
    3263,    1129,     372,     375,     376
    3264,     432,     514,     520,     851
    3265,    1000,    1854,    1386,    1213
    3266,    1843,    1819,    1842,    1855
    3267,    1010,    1838,    1009,    1091
    3268,     120,     121,     119,     433
    3269,    1001,    1003,     782,     257
    3270,    1337,    1593,    1101,    1336
    3271,     436,     697,     698,     372
    3272,     436,     514,    1101,     537
    3273,     201,      53,     202,     469
    3274,     432,     520,     501,     851
    3275,    1618,    1819,    1842,    1843
    3276,    1093,     894,    1004,    1045
    3277,    1029,    1619,    1622,    1695
    3278,      59,      60,    1521,     144
    3279,     436,     514,     537,     536
    3280,    1855,     261,    1856,    1857
    3281,    1119,    1843,    1618,    1842
    3282,     821,    1119,    1843,    1618
    3283,      70,      75,    1105,     989
    3284,     397,    1618,     777,    1319
    3285,      74,      62,      70,      73
    3286,     821,    1784,    1358,    1843
    3287,    1105,      73,      71,    1635
    3288,     567,    1509,    1355,    1456
    3289,    1005,    1028,    1565,    1182
    3290,    1224,    1673,    1858,    1674
    3291,    1307,    1121,    1365,    1680
    3292,     820,    1119,    1618,    1319
    3293,    1307,    1118,    1680,     819
    3294,    1307,     666,    1121,    1120
    3295,     374,     382,     383,     813
    3296,     961,    1728,     953,     951
    3297,    1105,      75,      73,    1544
    3298,    1375,    1376,    1364,    1365
    3299,     337,     393,     352,    1663
    3300,     667,     350,     761,     491
    3301,    1353,     565,    1502,    1515
    3302,     496,    1696,    1441,    1440
    3303,     768,     348,     761,    1440
    3304,      15,     743,      17,      14
    3305,     768,     348,    1180,    1111
    3306,     977,    1232,    1677,    1859
    3307,    1374,     226,     828,     227
    3308,     491,     490,    1057,     667
    3309,     533,     977,     541,     872
    3310,     927,    1450,    1452,    1860
    3311,     491,     761,    1057,     496
    3312,     667,     351,     666,    1375
    3313,     145,    1187,     555,     556
    3314,     145,     144,    1724,     556
    3315,     145,    1259,    1521,    1292
    3316,      53,     607,     146,     208
    3317,      59,     559,    1292,     203
    3318,     145,    1724,    1521,    1522
    3319,     361,     624,     359,     745
    3320,    1845,    1511,    1510,    1798
    3321,     447,    1731,     441,    1861
    3322,     961,    1580,     953,    1728
    3323,     361,     334,     624,     188
    3324,     501,     505,     851,     507
    3325,     505,     508,     510,    1517
    3326,     853,    1101,    1862,    1337
    3327,     501,     852,     505,     503
    3328,     432,     698,    1101,     853
    3329,     505,     503,     852,    1584
    3330,      70,     989,    1576,    1112
    3331,     503,    1584,     594,      74
    3332,     486,    1551,    1844,    1476
    3333,     499,     652,     488,    1104
    3334,     971,    1384,    1714,    1581
    3335,     363,    1044,     364,     855
    3336,     853,     508,    1863,    1862
    3337,     964,    1042,    1041,    1062
    3338,     794,     786,    1758,    1864
    3339,     159,     636,     738,     794
    3340,     365,     483,     855,     964
    3341,    1561,     190,     627,    1192
    3342,     636,     786,     794,     793
    3343,     220,     231,     221,     796
    3344,     481,    1710,    1423,    1171
    3345,     858,    1732,     859,    1229
    3346,     221,    1034,     794,    1048
    3347,      13,     366,      19,      22
    3348,      12,     482,    1102,     481
    3349,    1209,    1219,    1385,    1414
    3350,     662,      22,    1061,     664
    3351,     826,     454,    1679,     467
    3352,     738,     794,    1334,    1759
    3353,     794,    1334,    1759,    1758
    3354,      38,    1607,    1600,      41
    3355,     171,     546,     464,     467
    3356,     523,     960,     522,     910
    3357,     794,    1034,    1758,    1048
    3358,      56,    1469,      58,      55
    3359,     674,     671,    1124,    1865
    3360,     674,    1521,    1508,    1292
    3361,     674,     675,    1124,     671
    3362,    1866,    1867,     827,    1679
    3363,    1028,    1182,    1181,    1694
    3364,      59,    1292,     674,     203
    3365,    1398,    1340,    1258,    1024
    3366,     883,    1549,    1196,    1195
    3367,    1398,    1258,    1340,    1535
    3368,    1398,    1352,     469,    1258
    3369,    1398,     112,    1519,    1350
    3370,     840,    1222,    1661,    1223
    3371,    1398,     469,    1352,    1519
    3372,     599,      24,     775,       2
    3373,     288,    1110,     442,     445
    3374,     484,     489,     499,     488
    3375,     283,       4,     286,     497
    3376,    1661,    1692,    1868,    1443
    3377,     339,     839,     840,    1223
    3378,     966,    1661,     840,    1222
    3379,     967,    1692,     968,    1513
    3380,     499,     498,     500,    1104
    3381,    1481,    1021,    1037,     497
    3382,     422,     593,    1846,     428
    3383,     497,    1022,    1476,    1021
    3384,     497,     485,    1481,    1844
    3385,     497,    1844,     486,     485
    3386,     281,     286,     902,     295
    3387,     843,     218,     485,     654
    3388,     484,     497,     283,     498
    3389,     694,     757,     476,     473
    3390,    1825,    1580,     908,     429
    3391,    1423,    1051,     626,     745
    3392,    1032,    1509,    1380,    1698
    3393,     169,    1723,    1454,    1721
    3394,     757,     946,     476,     942
    3395,     946,    1074,     694,     476
    3396,    1475,    1284,    1482,    1646
    3397,       5,     243,     244,     706
    3398,     759,    1361,     946,     947
    3399,     759,    1361,     693,     694
    3400,     946,    1361,    1090,     947
    3401,    1174,    1051,    1404,    1172
    3402,     946,    1361,     694,    1485
    3403,    1279,    1869,    1283,    1280
    3404,     946,    1089,    1361,    1485
    3405,    1288,    1179,    1283,    1282
    3406,     946,    1090,    1361,    1089
    3407,     513,     597,     595,     520
    3408,    1101,     436,    1336,     698
    3409,     514,     513,     520,     597
    3410,     710,    1490,    1507,    1251
    3411,     514,     513,    1100,     536
    3412,     519,     119,     246,     919
    3413,     535,    1100,     513,     536
    3414,     698,     372,     697,    1324
    3415,     853,    1593,    1337,    1863
    3416,    1101,    1338,     537,    1335
    3417,    1101,     851,    1862,    1335
    3418,     284,    1395,    1020,    1486
    3419,    1586,    1552,    1397,    1797
    3420,     409,     408,     403,     366
    3421,     487,    1551,    1797,    1510
    3422,    1328,     443,    1457,     279
    3423,      73,    1796,      71,    1635
    3424,    1328,     279,    1457,    1330
    3425,    1741,    1746,    1328,    1742
    3426,    1328,    1746,    1437,    1329
    3427,    1328,    1430,    1742,    1849
    3428,    1064,    1782,     993,    1870
    3429,     887,     558,    1264,    1215
    3430,    1849,    1331,    1328,    1871
    3431,     103,    1518,    1543,     102
    3432,     100,     102,    1266,    1518
    3433,    1430,     285,    1445,     287
    3434,    1430,    1742,    1849,    1871
    3435,    1541,    1316,    1542,    1543
    3436,    1430,    1445,     285,    1742
    3437,    1541,    1542,    1076,    1538
    3438,     101,     102,    1543,    1536
    3439,    1541,    1688,    1076,    1542
    3440,    1107,    1500,     764,     629
    3441,     555,     554,     556,    1187
    3442,    1107,     629,     764,    1681
    3443,    1107,    1682,     879,    1681
    3444,    1107,    1682,     699,     879
    3445,    1541,     748,    1688,    1315
    3446,     206,     748,    1688,    1541
    3447,     688,     879,    1107,     699
    3448,     753,     415,    1087,    1872
    3449,     749,    1669,    1315,    1670
    3450,    1344,    1499,    1703,    1107
    3451,    1700,    1344,    1499,    1703
    3452,    1107,    1106,    1343,    1500
    3453,    1688,    1315,    1873,    1542
    3454,     700,    1106,    1343,    1107
    3455,    1837,     416,     892,    1534
    3456,    1837,    1093,     892,     416
    3457,      22,    1228,    1049,    1065
    3458,    1837,    1631,    1007,    1838
    3459,     810,    1130,    1776,    1128
    3460,     889,    1546,    1506,     252
    3461,    1827,    1820,    1714,    1874
    3462,     538,     542,     539,    1705
    3463,    1100,     539,     536,     534
    3464,      88,    1546,     252,    1778
    3465,     849,    1074,    1321,    1685
    3466,    1045,    1837,    1631,    1007
    3467,     745,     361,     389,     359
    3468,     383,     374,     809,     373
    3469,    1093,    1045,    1010,    1837
    3470,    1837,    1533,     894,    1631
    3471,     980,    1774,     981,    1270
    3472,    1775,    1569,    1777,    1778
    3473,      89,    1569,    1778,     252
    3474,     980,      89,      83,     585
    3475,     583,     589,     586,     251
    3476,    1837,    1088,    1010,    1093
    3477,    1027,    1525,     730,    1000
    3478,      18,      22,      21,    1228
    3479,     624,     744,     747,    1709
    3480,     868,    1875,      16,    1876
    3481,    1136,    1320,    1795,     969
    3482,     587,    1665,     586,    1877
    3483,      46,    1514,    1027,     838
    3484,     333,     334,     325,     661
    3485,     659,    1817,    1683,    1812
    3486,     370,    1794,    1877,    1795
    3487,    1027,    1514,    1214,     838
    3488,     310,     936,     929,     930
    3489,    1027,    1514,     730,     271
    3490,    1027,     270,    1514,     271
    3491,    1027,    1214,    1514,     270
    3492,    1619,    1622,    1695,    1620
    3493,    1098,    1029,    1031,    1747
    3494,     934,     447,     931,    1861
    3495,     288,       3,     289,      26
    3496,    1696,     761,     496,    1878
    3497,    1307,     351,     343,     819
    3498,     289,    1628,    1110,    1050
    3499,     288,     447,     442,     441
    3500,     222,    1032,    1033,     231
    3501,    1046,    1698,    1754,    1753
    3502,     352,    1693,     668,    1663
    3503,     952,    1612,     913,    1406
    3504,    1046,    1262,    1263,    1754
    3505,     447,     931,     900,     933
    3506,    1048,    1758,    1792,    1756
    3507,    1619,    1695,    1047,    1620
    3508,     447,     444,     933,     900
    3509,     770,     326,    1126,     132
    3510,     407,    1574,    1589,    1487
    3511,     483,    1423,    1710,    1709
    3512,     447,     445,    1731,    1285
    3513,      68,     299,     774,      69
    3514,     357,    1391,     450,     451
    3515,      67,     273,      69,      66
    3516,     344,     347,    1306,    1558
    3517,     926,    1689,    1143,    1402
    3518,     774,    1161,    1243,    1163
    3519,     410,    1487,     962,    1483
    3520,     724,    1732,    1484,     859
    3521,    1638,     774,    1297,     298
    3522,     358,     774,    1161,    1067
    3523,     358,     771,     774,    1067
    3524,    1424,    1462,    1426,    1425
    3525,     935,    1612,      42,    1826
    3526,     130,     132,     770,    1126
    3527,     522,     910,    1237,     724
    3528,      38,    1160,    1600,    1607
    3529,    1159,      32,      38,    1158
    3530,     232,     832,     236,     755
    3531,      59,     139,     145,    1292
    3532,    1461,    1462,     959,    1426
    3533,     139,    1260,     559,    1266
    3534,     530,    1125,     973,     528
    3535,     569,     680,     739,    1094
    3536,    1014,    1610,    1722,    1727
    3537,     676,      32,     677,    1159
    3538,     559,    1292,    1257,    1260
    3539,     559,      99,     104,     103
    3540,     930,     935,    1826,    1165
    3541,     916,    1879,    1420,    1588
    3542,    1415,     552,     772,     427
    3543,     124,     104,     100,     129
    3544,     100,     559,    1266,     733
    3545,     935,    1530,    1826,      42
    3546,     944,     948,    1755,    1530
    3547,      99,     559,     203,     207
    3548,     559,    1257,     207,    1518
    3549,    1072,    1408,    1409,    1755
    3550,     100,     731,     101,      94
    3551,     945,    1764,    1418,    1409
    3552,     915,     913,    1165,     911
    3553,     192,     187,     711,     993
    3554,     357,     293,     449,     450
    3555,    1095,     740,    1598,    1880
    3556,     736,     292,     291,     130
    3557,     290,     736,     291,     126
    3558,    1448,    1449,    1451,    1117
    3559,     928,    1603,    1740,    1275
    3560,     928,     949,    1739,    1603
    3561,     723,     780,     532,     722
    3562,     433,     721,     722,     726
    3563,     722,     727,     725,     726
    3564,     722,     725,     727,     781
    3565,     722,    1117,     780,    1116
    3566,    1098,    1747,    1031,    1203
    3567,     722,     727,     721,    1449
    3568,     254,    1618,    1312,     777
    3569,    1023,    1026,    1146,     239
    3570,     236,     237,     753,     241
    3571,     236,     235,     754,     752
    3572,    1026,    1184,    1531,    1023
    3573,     232,     755,    1023,     832
    3574,      45,     110,      44,     107
    3575,     232,     233,     234,     239
    3576,     621,     306,     311,     309
    3577,     477,     971,     970,     479
    3578,     784,    1045,    1004,    1358
    3579,     970,     685,    1689,    1219
    3580,    1008,    1625,    1815,    1632
    3581,     970,     971,    1835,     479
    3582,    1495,     273,    1749,    1309
    3583,      70,    1105,      73,      71
    3584,    1748,     274,     273,     734
    3585,     274,     734,     182,     273
    3586,    1748,    1750,    1294,    1751
    3587,    1105,    1576,    1635,      71
    3588,      70,    1112,    1576,      71
    3589,     182,     823,     274,     275
    3590,     264,      67,     182,     266
    3591,    1748,     274,    1294,    1614
    3592,    1279,    1283,    1869,    1881
    3593,    1248,    1254,     274,     275
    3594,       8,     581,     173,     651
    3595,    1176,    1177,    1676,    1287
    3596,    1248,    1614,     274,    1254
    3597,     441,     443,    1871,     442
    3598,     288,     443,     442,    1110
    3599,    1200,    1503,    1199,    1290
    3600,     219,     217,     594,     503
    3601,     286,     295,     284,    1486
    3602,     903,    1279,    1475,    1284
    3603,    1647,    1198,    1197,    1199
    3604,     600,     601,    1199,     602
    3605,     289,    1110,     445,    1050
    3606,     447,    1861,     441,     446
    3607,     447,     931,    1861,     446
    3608,     442,    1466,    1110,    1882
    3609,    1628,    1050,     445,    1110
    3610,     775,     790,     792,    1465
    3611,     310,     530,     528,    1125
    3612,    1628,    1467,     445,    1883
    3613,    1741,    1742,    1328,    1430
    3614,    1741,     295,    1328,    1746
    3615,    1741,     284,     295,    1486
    3616,    1200,     689,     901,     690
    3617,     876,     506,    1564,     509
    3618,     770,    1640,    1638,    1206
    3619,     656,     791,     790,    1464
    3620,     500,    1394,    1444,     498
    3621,     759,     119,     919,     123
    3622,     283,     500,     285,     287
    3623,     289,     653,     499,     847
    3624,    1458,     294,    1810,    1330
    3625,    1503,    1071,    1290,    1200
    3626,     655,     897,    1844,    1564
    3627,     901,     902,    1480,    1071
    3628,    1430,     443,     287,    1871
    3629,    1741,    1746,    1742,    1745
    3630,     109,     262,    1000,     756
    3631,     619,     926,     480,     477
    3632,    1430,     287,    1445,    1871
    3633,    1394,    1583,     285,    1444
    3634,      93,     561,     293,     143
    3635,     521,     619,     477,     530
    3636,     541,    1677,     534,     542
    3637,      28,     658,     655,     657
    3638,     701,     988,     989,    1112
    3639,     770,    1653,     300,    1300
    3640,     214,     212,     504,     502
    3641,     646,     639,     643,     644
    3642,     854,     596,    1145,     506
    3643,     812,     807,     758,     474
    3644,     122,     119,     989,      76
    3645,     648,    1407,     658,     657
    3646,     648,     657,     644,    1407
    3647,     648,     656,     790,      29
    3648,     648,      29,     790,     647
    3649,     648,     639,      29,     646
    3650,     488,     590,     489,    1104
    3651,     195,     719,     938,     272
    3652,     770,     300,    1653,     132
    3653,     770,     300,    1640,    1300
    3654,     644,    1488,     905,     643
    3655,      75,     385,     702,    1544
    3656,    1448,     722,    1140,     723
    3657,    1686,     113,     114,     938
    3658,     195,     272,     296,     719
    3659,     807,     812,     814,     475
    3660,     939,    1779,     131,     719
    3661,     939,    1779,     719,     115
    3662,     749,     754,     750,    1532
    3663,     207,     103,    1518,    1316
    3664,     207,    1257,    1316,    1518
    3665,    1541,     103,    1316,    1543
    3666,      94,      97,    1671,    1538
    3667,     939,     718,    1779,    1736
    3668,    1748,    1495,    1751,     734
    3669,     264,     265,      66,     272
    3670,     202,     830,    1155,     831
    3671,     469,    1352,     209,    1317
    3672,     111,     878,    1393,    1519
    3673,     264,     276,     273,    1766
    3674,     642,    1744,     984,     643
    3675,     606,     341,    1005,    1111
    3676,     606,    1008,    1617,    1111
    3677,    1617,     348,    1440,    1696
    3678,    1617,    1359,     348,    1696
    3679,    1109,    1804,     781,    1884
    3680,    1336,    1101,    1338,     537
    3681,    1101,    1335,    1337,    1338
    3682,     472,     849,     848,     889
    3683,    1448,     907,     906,     721
    3684,     259,     260,     414,    1002
    3685,     783,     821,    1784,    1358
    3686,     206,    1076,     831,      97
    3687,     202,     831,    1155,    1114
    3688,     952,     935,     913,    1612
    3689,     270,     271,    1027,    1525
    3690,    1617,     348,    1180,    1440
    3691,    1617,    1624,    1783,    1359
    3692,    1617,    1008,    1625,    1816
    3693,     235,    1185,    1858,    1186
    3694,     783,    1624,    1617,    1625
    3695,     798,    1091,    1363,    1092
    3696,    1813,    1111,    1617,    1008
    3697,      60,     144,      50,    1310
    3698,     468,    1233,     470,      52
    3699,     751,    1670,    1528,    1672
    3700,     587,     879,     583,     982
    3701,     584,     587,     879,     583
    3702,     982,     587,     879,    1683
    3703,    1840,    1859,    1885,    1886
    3704,     535,    1113,    1139,     534
    3705,      79,      88,      89,     475
    3706,    1074,    1684,    1800,    1089
    3707,    1109,    1554,     874,    1887
    3708,    1703,    1699,    1700,    1344
    3709,     982,     699,    1682,     879
    3710,     982,    1683,     879,    1682
    3711,    1568,    1775,     980,      89
    3712,    1568,      89,    1569,    1775
    3713,     923,    1333,    1556,    1563
    3714,     762,    1571,     766,     767
    3715,     814,    1777,     958,    1778
    3716,     378,     995,     381,     380
    3717,    1109,    1232,     977,    1554
    3718,    1840,    1886,    1555,    1554
    3719,     334,     318,     359,     367
    3720,     325,     923,     870,     955
    3721,     325,     955,     870,     661
    3722,     955,     994,    1563,     869
    3723,     378,     423,     379,     955
    3724,     423,     866,     955,     661
    3725,     423,     391,     866,     661
    3726,     423,     380,     379,     994
    3727,    1658,    1555,    1660,    1839
    3728,     607,    1514,     838,     836
    3729,    1027,     838,    1213,      50
    3730,     109,      46,     730,     355
    3731,      89,      88,     252,    1778
    3732,     811,     814,    1775,     810
    3733,    1568,     585,      89,     980
    3734,      89,     814,     475,    1778
    3735,    1568,    1569,    1570,    1775
    3736,    1658,    1660,    1875,    1839
    3737,     346,     996,     347,     345
    3738,     585,      89,    1569,    1568
    3739,     409,    1400,     408,    1399
    3740,      89,     585,     251,      87
    3741,    1664,      16,      14,      15
    3742,     913,     912,    1406,     911
    3743,     868,    1664,      16,    1875
    3744,     868,      16,      17,    1876
    3745,      83,     811,     980,      82
    3746,     809,     811,     980,     810
    3747,     483,    1063,    1062,    1710
    3748,     609,     827,     544,     610
    3749,     609,     544,    1718,     494
    3750,    1423,    1709,    1191,    1171
    3751,     391,    1323,    1876,      17
    3752,     318,     437,     378,     346
    3753,     154,     495,     882,    1524
    3754,     623,     913,     952,     935
    3755,     191,     188,     624,     190
    3756,     155,     612,     883,     494
    3757,     611,     609,     610,     617
    3758,     461,     465,     171,     169
    3759,     465,     463,    1436,    1455
    3760,     545,     169,    1369,     549
    3761,    1669,    1315,    1688,     749
    3762,     167,     169,     545,     549
    3763,     465,    1272,     464,     546
    3764,     465,    1752,    1704,    1436
    3765,     465,    1272,    1752,    1436
    3766,     545,     169,    1454,    1369
    3767,     171,     169,     465,     546
    3768,     464,     457,    1867,    1416
    3769,    1011,    1267,    1606,    1246
    3770,     623,     909,     622,     953
    3771,     579,    1606,    1605,    1609
    3772,    1857,    1001,     261,    1856
    3773,     609,     827,    1718,     544
    3774,     578,     495,    1596,    1597
    3775,     549,    1369,    1253,    1721
    3776,     461,     463,     465,     462
    3777,     570,      37,     466,     168
    3778,    1459,    1271,    1704,    1370
    3779,     463,    1888,    1455,    1577
    3780,     941,     680,    1601,    1529
    3781,     569,     572,     940,     928
    3782,     465,    1704,    1752,     546
    3783,      39,    1577,    1578,    1717
    3784,     649,    1829,    1141,    1275
    3785,    1047,    1046,    1754,    1792
    3786,     936,    1755,    1409,    1408
    3787,     552,     772,     773,    1413
    3788,    1857,     782,    1001,    1003
    3789,      39,    1828,    1717,    1728
    3790,     546,    1867,    1272,     464
    3791,     457,     773,     861,    1421
    3792,      39,    1828,    1577,    1717
    3793,     772,     425,     428,     427
    3794,    1273,     546,    1867,    1272
    3795,     961,    1425,    1462,    1580
    3796,      40,     308,     311,     679
    3797,     425,    1846,    1422,     428
    3798,     945,    1125,     929,    1418
    3799,     782,    1857,    1819,     821
    3800,    1568,     982,     980,     981
    3801,     910,    1579,     429,    1580
    3802,     925,    1229,    1144,    1231
    3803,     306,     310,     312,    1125
    3804,    1569,    1568,    1567,     585
    3805,     809,     980,    1128,     810
    3806,    1843,     821,    1618,    1819
    3807,     625,     762,     626,     766
    3808,     972,    1219,    1385,    1209
    3809,     344,    1558,    1400,     347
    3810,     980,     810,    1774,    1128
    3811,    1889,    1466,    1467,    1730
    3812,    1238,     411,    1483,    1489
    3813,    1559,    1238,    1483,    1489
    3814,    1461,    1152,    1239,    1463
    3815,    1568,    1775,    1570,    1774
    3816,     411,    1151,    1489,    1152
    3817,     980,      82,    1270,     981
    3818,     479,    1827,    1835,    1402
    3819,     736,     196,     133,     193
    3820,     412,    1713,    1558,    1489
    3821,     410,    1483,    1559,    1487
    3822,     131,     718,    1240,    1779
    3823,     131,     133,     719,     816
    3824,     131,    1240,     298,     301
    3825,    1098,    1622,    1747,    1202
    3826,     714,     712,    1203,    1098
    3827,     562,    1032,    1380,    1030
    3828,    1029,    1381,    1619,    1033
    3829,    1029,    1033,    1031,    1381
    3830,    1030,     222,    1032,    1033
    3831,    1541,     207,     206,     748
    3832,     548,    1201,    1719,     223
    3833,    1541,    1316,     748,    1315
    3834,     207,     748,    1256,     204
    3835,     207,    1257,     204,    1256
    3836,     559,     203,     207,    1257
    3837,     565,    1502,    1515,    1693
    3838,     559,     207,     103,    1518
    3839,      99,     207,     206,     103
    3840,     442,     445,    1110,    1466
    3841,     223,    1553,    1560,    1719
    3842,    1628,    1466,    1803,    1802
    3843,    1374,    1434,    1433,      55
    3844,     226,    1719,    1560,    1698
    3845,     224,    1058,     548,    1201
    3846,    1276,    1278,    1061,    1403
    3847,    1382,    1571,    1061,    1052
    3848,     606,     783,     341,    1617
    3849,    1785,      69,    1772,    1164
    3850,    1276,     518,     368,    1277
    3851,     357,     356,     358,     771
    3852,     367,    1571,    1382,    1052
    3853,    1495,    1749,    1498,    1309
    3854,     367,    1382,     369,     368
    3855,    1248,    1294,    1250,    1249
    3856,     273,    1161,    1164,    1162
    3857,    1164,    1766,    1785,      69
    3858,     825,    1708,     527,     450
    3859,     824,     734,     179,    1769
    3860,    1571,     367,     762,    1052
    3861,     367,    1382,     368,     805
    3862,    1127,     805,     660,     368
    3863,     707,     275,     136,    1255
    3864,    1248,     185,     275,     823
    3865,     267,    1299,     266,    1255
    3866,     527,    1295,    1787,     974
    3867,     993,     992,     991,    1870
    3868,     135,     305,     839,     339
    3869,     131,     718,     298,    1240
    3870,     710,    1507,    1654,    1527
    3871,     232,     236,     832,     117
    3872,     442,     441,     447,    1731
    3873,     236,     832,     750,     755
    3874,     127,     303,     302,     707
    3875,     939,     718,     131,    1779
    3876,     966,    1443,    1215,    1264
    3877,     232,     237,     242,     235
    3878,     754,     755,    1532,    1185
    3879,     966,    1692,    1264,     968
    3880,     836,    1069,    1216,    1222
    3881,    1775,    1570,    1774,    1776
    3882,    1628,     445,    1050,    1883
    3883,     208,    1070,     468,     209
    3884,     810,    1128,     374,    1130
    3885,     966,    1692,    1661,    1443
    3886,     809,     374,     810,    1128
    3887,     687,     323,     686,     250
    3888,     555,     709,    1296,     716
    3889,     324,     687,     323,     686
    3890,     468,    1233,    1317,    1308
    3891,     809,     980,    1270,    1128
    3892,      82,      83,     982,     980
    3893,    1890,    1503,    1071,    1290
    3894,     288,    1110,     289,     287
    3895,     281,    1200,     901,     599
    3896,     989,    1112,     988,    1891
    3897,     581,     174,     580,     651
    3898,    1105,     989,     812,    1576
    3899,    1200,     689,     690,     691
    3900,     372,    1268,    1324,    1129
    3901,     698,    1593,     376,    1324
    3902,    1200,     901,    1071,     690
    3903,    1702,    1699,    1836,    1327
    3904,     444,    1131,    1050,    1285
    3905,    1198,    1200,     691,     689
    3906,      80,    1326,     697,     373
    3907,    1702,    1701,    1836,    1699
    3908,      23,     775,       6,     792
    3909,    1282,    1038,     903,     900
    3910,    1282,    1038,     243,    1288
    3911,    1336,    1595,    1807,    1594
    3912,    1282,    1286,     243,     900
    3913,    1282,     900,     903,    1279
    3914,      24,     900,    1038,     243
    3915,    1282,    1279,    1284,    1283
    3916,       2,      24,       5,      26
    3917,    1702,    1836,    1594,    1327
    3918,    1837,    1631,    1838,    1533
    3919,    1176,    1179,    1038,    1325
    3920,     769,    1123,     675,     671
    3921,     769,     893,     414,     892
    3922,     336,     351,     343,     352
    3923,    1533,     892,    1534,    1837
    3924,     263,     877,    1312,    1360
    3925,     769,    1725,     670,    1690
    3926,     261,    1892,    1313,    1360
    3927,     756,    1360,    1313,    1154
    3928,     769,    1893,     892,    1123
    3929,     224,     796,    1058,    1201
    3930,     769,     670,    1725,     671
    3931,    1180,    1028,    1005,    1182
    3932,    1307,    1680,    1118,    1121
    3933,     255,     877,    1150,    1312
    3934,    1094,    1605,     740,    1602
    3935,     349,    1307,     819,     351
    3936,    1094,    1095,     928,    1740
    3937,    1375,     666,      57,    1377
    3938,     739,    1094,     740,    1095
    3939,     576,     739,     815,     166
    3940,     739,    1095,     571,     928
    3941,     461,     465,     463,     464
    3942,    1094,     949,     941,    1601
    3943,    1094,    1602,    1740,    1739
    3944,     482,    1821,    1894,    1389
    3945,     569,     941,    1094,     928
    3946,    1095,     928,    1275,     571
    3947,     378,     381,     438,    1115
    3948,    1051,    1172,    1065,    1405
    3949,    1095,    1598,    1596,    1608
    3950,     344,     346,     392,    1306
    3951,     569,     739,     928,    1094
    3952,    1095,    1275,     928,    1740
    3953,     256,     255,     254,    1312
    3954,     662,    1278,    1061,    1127
    3955,     930,     929,    1879,    1824
    3956,     288,     442,     447,     445
    3957,     234,    1345,    1025,     239
    3958,     390,     391,     423,     661
    3959,     627,    1492,    1192,     190
    3960,      89,      87,     252,      88
    3961,     481,    1710,    1821,    1401
    3962,      10,      18,    1049,      22
    3963,    1088,     418,    1093,     416
    3964,     257,     388,     258,     784
    3965,    1023,    1146,    1186,     242
    3966,     479,    1835,    1689,    1402
    3967,      37,     168,     170,     461
    3968,     455,     461,     457,     454
    3969,    1489,    1152,    1238,     411
    3970,     805,    1052,     359,     367
    3971,     461,     168,     170,     169
    3972,     406,     962,     407,    1589
    3973,      18,    1228,    1388,    1405
    3974,     665,    1388,    1371,    1587
    3975,     465,     462,    1454,     169
    3976,    1102,     478,     483,    1401
    3977,     307,     309,     682,     456
    3978,     973,    1419,    1581,    1420
    3979,     464,     463,     457,    1416
    3980,    1416,     463,    1888,     464
    3981,     407,     404,     392,     344
    3982,    1888,     464,    1417,    1416
    3983,     479,     478,    1102,    1402
    3984,     465,     462,    1455,    1454
    3985,     936,    1408,    1824,    1755
    3986,     464,     457,     467,    1867
    3987,     461,     465,     169,     462
    3988,     459,    1412,     860,     773
    3989,     573,    1764,    1141,    1831
    3990,     941,     949,     948,    1529
    3991,     459,     457,     463,    1888
    3992,     826,     779,    1080,    1679
    3993,    1788,    1431,    1895,    1790
    3994,     457,    1412,    1416,    1888
    3995,     459,    1412,     457,    1888
    3996,     455,     463,     462,     460
    3997,    1855,    1857,    1843,    1819
    3998,    1095,    1608,    1740,    1598
    3999,    1058,    1253,    1753,    1263
    4000,    1094,    1602,    1601,    1605
    4001,     462,    1454,    1723,    1455
    4002,     461,     464,     457,     467
    4003,     613,    1083,     615,    1077
    4004,     593,     430,     592,     422
    4005,     883,    1195,    1550,    1549
    4006,     613,     615,    1083,    1082
    4007,     456,     779,    1421,     861
    4008,     158,     167,     362,     549
    4009,     494,    1550,    1468,    1718
    4010,     462,     678,    1723,     169
    4011,      75,      74,      73,    1544
    4012,     172,     650,     591,     653
    4013,     510,    1585,    1517,    1511
    4014,     425,     551,     772,    1189
    4015,     480,     426,     420,     926
    4016,     425,     551,    1189,     684
    4017,     550,     427,     551,     552
    4018,     375,     374,     372,    1129
    4019,     426,     427,     908,     421
    4020,     422,    1231,    1846,     593
    4021,     420,     926,    1422,    1143
    4022,    1731,    1733,    1861,     934
    4023,     422,     429,     421,     419
    4024,     925,     419,     420,     421
    4025,    1647,    1198,    1200,     691
    4026,     422,     426,     420,     421
    4027,    1200,    1290,    1647,     691
    4028,     899,    1458,    1198,    1649
    4029,     903,    1470,    1649,    1475
    4030,     550,     425,     551,     427
    4031,     295,    1486,     902,    1289
    4032,     421,     427,     908,     429
    4033,     672,     415,     753,    1872
    4034,    1437,    1847,    1289,    1810
    4035,    1653,     770,     326,    1300
    4036,     532,     781,     533,     435
    4037,     238,    1146,     242,     440
    4038,     770,    1206,    1126,    1207
    4039,     353,     769,     671,     670
    4040,      68,    1163,    1297,    1205
    4041,     675,    1123,     416,    1872
    4042,     527,    1896,     974,    1781
    4043,     675,    1528,     672,     673
    4044,     675,    1124,     671,    1123
    4045,     297,     130,     131,     132
    4046,    1361,    1156,     693,     695
    4047,     131,     301,    1779,    1240
    4048,    1657,      69,    1637,    1772
    4049,    1204,    1205,    1241,    1240
    4050,    1737,    1657,     277,    1637
    4051,     675,     672,    1528,    1872
    4052,     941,     679,      33,    1529
    4053,     967,    1513,     137,     199
    4054,     326,    1653,    1301,     328
    4055,     198,     339,     840,    1223
    4056,     326,     328,     132,    1653
    4057,     291,      93,     126,     564
    4058,    1147,    1638,    1640,    1149
    4059,     569,     680,      35,     570
    4060,     940,     944,     941,     948
    4061,     941,    1530,    1529,     948
    4062,     944,     936,    1530,    1755
    4063,     648,     791,     647,     790
    4064,     569,     575,      33,     941
    4065,    1176,    1325,    1177,    1179
    4066,     445,     444,    1050,    1285
    4067,    1106,     803,     873,    1347
    4068,    1106,     700,    1347,     873
    4069,    1328,    1329,    1331,    1849
    4070,    1394,    1020,    1397,    1552
    4071,     442,    1110,     443,    1882
    4072,    1022,    1552,    1551,    1476
    4073,    1022,    1552,    1476,    1020
    4074,     700,     699,      84,     688
    4075,     688,    1107,     879,     880
    4076,    1661,    1852,    1692,     199
    4077,     199,    1447,    1661,    1852
    4078,     472,     476,     889,      88
    4079,     891,    1699,     699,    1703
    4080,    1107,    1500,    1344,    1499
    4081,     967,    1512,    1299,    1513
    4082,     967,     137,    1513,    1299
    4083,     701,     947,     123,     989
    4084,    1081,     683,    1830,    1832
    4085,    1081,    1083,    1832,    1830
    4086,     510,    1845,    1511,    1510
    4087,     920,     701,     246,     249
    4088,     217,    1585,     844,     594
    4089,     511,    1551,     486,     487
    4090,     504,     512,     507,     506
    4091,     852,     376,    1799,     702
    4092,     852,    1799,    1584,     702
    4093,     927,    1860,    1488,    1407
    4094,     681,     649,    1829,    1831
    4095,     613,     614,     826,     617
    4096,     354,    1690,    1386,    1716
    4097,     203,    1292,     673,    1257
    4098,     838,     557,    1214,    1213
    4099,     611,     614,     613,     617
    4100,    1514,     269,    1215,    1216
    4101,     927,    1860,     898,    1145
    4102,    1081,     614,    1082,     649
    4103,     519,     520,     595,     760
    4104,     826,     617,    1679,    1079
    4105,     698,     377,     372,     376
    4106,     307,     649,     681,     573
    4107,     452,     614,    1081,     649
    4108,     936,     930,    1826,    1824
    4109,     312,     945,     575,     315
    4110,     697,    1268,    1594,    1324
    4111,     697,    1327,    1594,    1268
    4112,      80,     700,     891,     699
    4113,     700,    1347,    1344,    1343
    4114,     944,     936,     679,    1530
    4115,     936,     679,    1530,     935
    4116,     945,    1764,    1125,    1418
    4117,    1336,     698,     697,    1324
    4118,     436,     372,     377,     373
    4119,    1361,    1156,    1801,    1478
    4120,    1702,    1705,     538,    1595
    4121,      80,     891,    1326,     699
    4122,     514,    1101,    1335,     851
    4123,     312,     929,     945,    1125
    4124,     529,     310,     528,     916
    4125,      18,    1405,    1049,    1228
    4126,    1807,    1594,    1595,    1836
    4127,      18,      21,    1371,    1228
    4128,      12,    1102,     478,     483
    4129,      12,     478,     363,     483
    4130,      18,      21,     665,    1371
    4131,    1277,     368,    1276,    1127
    4132,     318,     319,     367,     334
    4133,     368,    1795,     370,    1136
    4134,    1701,     891,    1344,    1699
    4135,     946,     694,     757,     476
    4136,     891,    1702,    1705,     538
    4137,     367,     370,     659,     319
    4138,     891,    1701,    1702,    1699
    4139,     368,     370,     518,     516
    4140,     368,     369,     370,     516
    4141,     153,     544,     494,     638
    4142,     609,     610,     544,     494
    4143,     151,     157,     636,     159
    4144,     576,    1596,     635,     815
    4145,     578,     495,     576,    1596
    4146,     579,     576,     577,     168
    4147,     891,    1326,     699,    1699
    4148,     725,     726,     728,     732
    4149,     332,     627,     190,     630
    4150,     543,     579,    1011,     577
    4151,     610,     635,    1524,     618
    4152,     849,     732,     850,     875
    4153,     158,     168,     543,     577
    4154,     891,    1344,    1706,    1701
    4155,    1699,     891,    1344,    1703
    4156,     726,     732,     694,     696
    4157,    1566,    1700,    1344,    1499
    4158,     707,    1512,     708,    1255
    4159,    1500,    1344,    1566,    1343
    4160,     134,     135,     199,     198
    4161,     134,     199,     135,     137
    4162,     732,     728,     850,     875
    4163,     841,     141,    1188,     554
    4164,     841,     967,     968,    1512
    4165,     177,     275,     136,     707
    4166,     627,     765,    1493,     763
    4167,     627,    1561,     626,     624
    4168,     135,     967,     707,     136
    4169,    1500,    1566,    1499,    1494
    4170,     177,     275,     266,     136
    4171,    1617,    1180,     348,    1111
    4172,     349,     819,    1359,    1783
    4173,     763,     765,    1494,     764
    4174,     627,    1491,    1492,     190
    4175,     336,     819,     340,     343
    4176,     349,     761,    1696,    1311
    4177,     316,     333,     332,     334
    4178,     624,     191,    1561,     747
    4179,     583,     686,     320,     589
    4180,     768,     348,    1440,    1180
    4181,     368,     660,    1277,    1320
    4182,    1440,     761,     496,    1696
    4183,     746,     391,    1876,      17
    4184,    1051,    1405,    1404,    1172
    4185,      12,     482,      18,     665
    4186,     411,    1151,    1713,    1489
    4187,     423,     866,     391,     424
    4188,     481,    1171,    1821,    1710
    4189,     483,    1401,    1063,    1710
    4190,     350,     496,     768,     761
    4191,    1174,    1193,    1173,    1191
    4192,     732,     694,     696,    1321
    4193,     997,     663,     664,      21
    4194,    1573,     664,    1822,    1591
    4195,     855,    1042,    1062,    1063
    4196,     914,     531,    1371,    1582
    4197,     107,     233,     234,     117
    4198,     914,     997,    1367,    1834
    4199,    1367,    1834,     915,     914
    4200,     551,     772,    1189,     861
    4201,     552,     427,    1825,     553
    4202,     422,     419,     430,     429
    4203,    1027,     355,      50,    1213
    4204,     529,     917,     911,     915
    4205,     917,     915,    1166,     911
    4206,     619,     909,     910,     421
    4207,     912,    1461,    1426,    1406
    4208,      41,    1607,    1600,    1575
    4209,    1425,    1575,    1607,     951
    4210,    1857,     821,     782,    1003
    4211,     236,     750,     749,     754
    4212,     611,     613,     615,    1078
    4213,     960,     411,    1152,    1151
    4214,     960,     912,    1153,    1461
    4215,     914,     916,     531,    1582
    4216,     815,     618,    1082,    1608
    4217,      32,    1158,    1159,      34
    4218,     452,     683,     826,     454
    4219,    1209,    1211,     682,    1212
    4220,     613,    1079,    1080,    1077
    4221,     916,     915,     930,    1592
    4222,     262,     756,     729,     263
    4223,     611,    1615,     609,     616
    4224,     916,     531,    1582,    1420
    4225,     529,     914,     916,     531
    4226,     916,     929,    1420,    1879
    4227,     529,     916,     915,     930
    4228,     915,    1592,    1834,    1367
    4229,     154,     635,    1524,     610
    4230,     827,    1273,    1866,    1718
    4231,     310,     528,     916,     929
    4232,    1058,    1201,    1753,    1368
    4233,     336,     335,     341,     338
    4234,    1879,     930,    1897,     916
    4235,     915,    1165,     930,    1592
    4236,    1432,    1435,    1373,    1560
    4237,    1379,    1370,    1460,    1553
    4238,    1201,    1368,    1719,    1753
    4239,     925,    1231,     419,    1229
    4240,    1229,    1144,    1274,     924
    4241,     915,     930,    1165,     913
    4242,     529,      20,     524,     917
    4243,     420,    1846,    1143,    1422
    4244,     883,     612,    1548,    1550
    4245,     529,     915,     913,     930
    4246,    1440,    1441,    1472,    1696
    4247,     749,     750,     748,    1688
    4248,     492,    1469,    1433,    1468
    4249,     386,     413,     414,     416
    4250,     971,     972,    1419,     973
    4251,    1201,    1753,    1719,    1698
    4252,     971,     720,    1581,    1714
    4253,     477,     970,     926,     479
    4254,     970,    1219,    1385,     972
    4255,     971,    1419,     972,    1384
    4256,    1067,    1243,    1162,    1768
    4257,     468,     150,     147,    1308
    4258,     449,     450,     451,     357
    4259,     208,     839,    1070,    1069
    4260,     104,     105,     183,      95
    4261,     127,     129,     304,     106
    4262,     240,     386,     413,     259
    4263,    1391,    1644,    1642,    1711
    4264,    1769,    1898,     734,    1751
    4265,      91,     138,    1064,     993
    4266,    1064,     138,    1168,    1870
    4267,    1167,     731,     138,     471
    4268,    1495,    1751,    1497,    1750
    4269,    1064,    1896,      92,    1782
    4270,     824,    1770,    1769,    1711
    4271,     734,     179,    1769,    1293
    4272,     774,      68,    1163,    1297
    4273,     125,     471,    1064,     138
    4274,     774,    1163,    1243,    1297
    4275,    1391,    1715,    1645,    1644
    4276,     825,    1298,     976,    1711
    4277,    1064,    1520,    1295,    1896
    4278,      93,     126,     564,     142
    4279,     182,     734,     823,     179
    4280,     357,     292,     291,     293
    4281,     763,    1494,    1492,    1491
    4282,     674,    1508,    1521,    1865
    4283,     824,    1298,    1711,    1769
    4284,     304,     716,     303,     733
    4285,     125,     471,     184,     142
    4286,    1064,    1295,    1520,     471
    4287,     763,     764,    1500,     629
    4288,     825,    1298,    1781,     976
    4289,     880,    1107,     629,     630
    4290,    1064,     527,      92,    1896
    4291,    1106,    1500,     630,    1343
    4292,      47,     355,      60,      50
    4293,     709,    1296,     716,    1527
    4294,    1500,    1494,    1491,    1566
    4295,    1500,    1566,    1344,    1499
    4296,     709,    1188,    1527,    1654
    4297,     185,    1170,    1169,    1251
    4298,    1495,    1751,     734,    1786
    4299,     710,     708,    1654,    1490
    4300,     710,    1654,    1507,    1490
    4301,     805,    1061,     366,     808
    4302,     392,     423,     346,     390
    4303,     733,    1261,    1266,     990
    4304,      61,     674,     671,     675
    4305,     201,    1024,    1398,    1258
    4306,     708,     303,    1188,    1512
    4307,     101,     102,    1536,    1168
    4308,    1561,     627,     190,     624
    4309,     190,     191,    1561,     624
    4310,     781,     728,     727,    1116
    4311,    1633,     633,    1811,    1899
    4312,     538,    1706,     542,    1705
    4313,     989,    1576,    1112,    1891
    4314,     726,    1743,     727,     696
    4315,     769,     671,    1725,    1893
    4316,     360,     359,     806,     389
    4317,     812,     814,     813,     958
    4318,     694,    1485,     695,     696
    4319,     624,     627,     190,     332
    4320,     332,     627,     626,     624
    4321,     361,     741,     389,     391
    4322,     310,     929,     312,    1125
    4323,     529,     310,     930,     913
    4324,     310,     936,     930,     935
    4325,     947,     942,    1891,    1090
    4326,     916,    1897,    1879,    1588
    4327,     946,     942,    1089,    1800
    4328,     529,     915,     911,     913
    4329,     212,     485,     486,     876
    4330,     916,    1592,    1897,    1588
    4331,     535,    1100,     534,    1139
    4332,     383,     811,     814,     475
    4333,     382,    1544,    1547,     385
    4334,     930,    1897,    1592,    1824
    4335,     476,    1800,    1546,     807
    4336,     930,    1879,    1897,    1824
    4337,     118,     383,     120,     122
    4338,     936,     929,     930,    1824
    4339,      89,     251,    1569,     252
    4340,     807,     475,     814,    1778
    4341,     916,     929,     528,    1420
    4342,     310,     935,     930,     913
    4343,      89,     252,      87,     251
    4344,     929,    1418,     528,    1420
    4345,     929,    1408,    1879,    1824
    4346,     929,    1879,    1408,    1409
    4347,      60,    1310,     670,    1725
    4348,     872,    1706,    1347,    1808
    4349,    1818,     664,    1371,     997
    4350,     587,    1567,     586,    1665
    4351,     529,     310,     530,     528
    4352,     956,    1570,    1777,    1776
    4353,     971,     526,     973,    1581
    4354,    1209,    1453,    1210,    1414
    4355,     970,    1219,     972,     685
    4356,     970,    1384,     971,     972
    4357,     550,     553,     427,     552
    4358,     972,     970,    1384,    1385
    4359,    1385,    1209,    1218,     972
    4360,     584,    1877,     588,    1795
    4361,     659,    1812,     369,    1817
    4362,     971,     973,    1419,    1581
    4363,    1233,     147,     230,     149
    4364,    1694,    1028,    1565,    1097
    4365,     468,     470,    1233,     164
    4366,    1813,    1816,    1472,    1815
    4367,    1007,    1008,    1632,    1625
    4368,    1815,    1816,    1008,    1813
    4369,    1233,    1900,    1317,    1235
    4370,     472,     849,     889,     476
    4371,    1233,    1234,    1900,    1235
    4372,     835,     799,     845,     398
    4373,    1617,    1359,    1816,    1624
    4374,     345,     438,     378,     996
    4375,    1233,    1308,     147,     149
    4376,      20,     914,     531,      21
    4377,    1306,     392,    1574,     424
    4378,    1233,     470,      52,    1236
    4379,     412,    1558,    1713,    1400
    4380,    1233,      52,    1317,    1234
    4381,    1061,      22,    1228,     664
    4382,     482,     720,    1389,    1587
    4383,     482,     481,    1821,    1102
    4384,      40,     314,      39,     953
    4385,     314,      39,     953,     553
    4386,      31,      40,      41,     679
    4387,      40,      39,     951,     953
    4388,    1306,    1558,    1557,    1487
    4389,      31,      41,      38,      32
    4390,    1361,     947,    1156,    1478
    4391,     919,    1156,    1361,     947
    4392,     422,     430,     592,     427
    4393,     865,     850,     890,     874
    4394,     522,     408,     411,     524
    4395,     916,    1420,    1582,    1588
    4396,     911,    1166,    1410,    1153
    4397,    1687,    1224,    1668,     749
    4398,     912,    1461,    1406,    1153
    4399,     623,     953,     961,     909
    4400,     913,    1165,    1406,    1612
    4401,     749,    1224,    1668,     752
    4402,    1239,     959,    1237,    1152
    4403,     749,     748,    1670,    1315
    4404,     685,    1219,    1212,    1190
    4405,     749,     754,    1532,    1687
    4406,     915,    1592,    1166,    1165
    4407,     914,    1582,    1372,    1588
    4408,     768,     788,    1440,     496
    4409,     930,    1165,    1826,    1824
    4410,     340,     820,     343,     819
    4411,     959,     961,    1580,     909
    4412,     350,     761,     349,     351
    4413,     930,    1897,     916,    1592
    4414,     959,    1580,     961,    1462
    4415,     523,     959,     623,     912
    4416,     623,     959,     961,     912
    4417,     959,    1237,    1579,    1239
    4418,     366,    1061,      22,     808
    4419,    1014,    1610,    1723,    1722
    4420,     366,     662,     409,     408
    4421,    1061,    1052,     805,    1382
    4422,    1030,     797,    1029,     563
    4423,    1058,    1253,    1368,    1753
    4424,     546,    1704,    1752,    1271
    4425,    1433,     638,    1378,    1379
    4426,    1127,     660,     437,    1277
    4427,    1276,    1403,    1061,    1383
    4428,     676,    1429,      34,    1159
    4429,    1278,    1403,    1573,     662
    4430,      35,     678,     677,      36
    4431,    1278,    1061,    1127,    1276
    4432,    1013,    1252,    1722,    1721
    4433,     662,    1399,     409,     408
    4434,     437,    1277,    1400,    1127
    4435,     345,     437,    1277,    1400
    4436,     118,     757,     474,     758
    4437,     118,     120,     383,      85
    4438,    1901,     712,    1203,     714
    4439,     805,     367,    1382,    1052
    4440,     783,    1045,    1358,    1624
    4441,     404,     360,     390,     344
    4442,     378,     345,     346,     437
    4443,     367,    1382,    1571,     369
    4444,     441,    1733,    1734,    1861
    4445,     319,     368,     370,    1136
    4446,     294,    1289,    1650,    1810
    4447,     319,     317,    1136,     320
    4448,     959,    1426,     912,    1461
    4449,    1391,     976,    1644,    1711
    4450,     403,     724,     410,     405
    4451,     181,     823,     185,    1249
    4452,     522,     411,     960,     524
    4453,     527,     976,     975,    1708
    4454,     449,    1206,    1639,     448
    4455,     521,     525,     477,     371
    4456,    1239,    1461,    1462,     959
    4457,     811,      89,      79,      83
    4458,     527,     974,     976,    1781
    4459,     910,    1237,     724,    1579
    4460,    1064,     993,    1782,      92
    4461,    1237,     724,    1579,    1484
    4462,     287,    1445,    1882,    1103
    4463,     910,     959,    1580,     909
    4464,     960,     411,    1237,    1152
    4465,     701,    1112,      70,      77
    4466,     480,     910,     858,     421
    4467,     960,     959,     912,    1461
    4468,     510,     842,     217,    1585
    4469,       6,    1056,     792,     790
    4470,      23,    1056,    1325,     792
    4471,     704,     703,    1017,    1016
    4472,    1053,    1054,    1056,     647
    4473,    1068,    1177,    1676,    1055
    4474,     959,    1461,    1152,    1239
    4475,      23,       6,     244,    1056
    4476,    1503,    1809,    1071,    1039
    4477,    1353,    1434,     828,    1515
    4478,    1432,    1374,    1434,    1433
    4479,      24,      26,     280,     243
    4480,     658,    1351,     896,    1464
    4481,    1373,    1356,    1560,    1435
    4482,    1860,     898,    1902,    1407
    4483,      63,     842,     218,     488
    4484,     226,    1509,    1373,     828
    4485,     644,     927,    1488,    1407
    4486,     639,      29,      28,     648
    4487,      86,     435,     890,     850
    4488,     904,     643,     905,    1744
    4489,    1448,     722,    1117,    1140
    4490,    1373,    1374,     223,     226
    4491,     170,    1013,     543,    1011
    4492,    1011,    1012,    1246,    1609
    4493,     694,    1321,    1485,     696
    4494,     543,    1058,    1013,    1015
    4495,     650,    1630,    1175,    1634
    4496,    1361,    1903,    1089,    1090
    4497,     947,     988,    1090,    1891
    4498,    1485,     946,    1074,     694
    4499,     693,    1743,     696,     695
    4500,    1245,    1253,    1013,    1058
    4501,    1011,    1059,    1606,    1267
    4502,    1305,    1184,    1146,    1303
    4503,    1339,    1342,    1350,    1535
    4504,    1245,     543,    1011,    1059
    4505,     708,    1188,     709,    1654
    4506,     127,     303,     135,     305
    4507,    1361,    1485,    1903,     695
    4508,    1074,    1684,    1504,    1800
    4509,     275,     708,     707,     177
    4510,    1361,    1801,    1156,     695
    4511,     707,     708,    1512,     303
    4512,    1723,    1578,     678,     462
    4513,     781,    1116,    1804,     728
    4514,    1113,    1232,    1678,    1677
    4515,     476,    1546,     889,      88
    4516,     476,     942,    1800,     807
    4517,     462,     169,    1723,    1454
    4518,      36,     462,    1455,     460
    4519,    1258,    1317,    1667,    1352
    4520,     463,     460,    1577,    1455
    4521,    1026,    1767,    1341,    1184
    4522,     296,     292,     194,     130
    4523,     200,     830,     831,     833
    4524,    1305,    1767,    1184,    1303
    4525,     133,     193,     329,     328
    4526,     423,     994,     955,     866
    4527,     849,    1685,    1321,     875
    4528,     133,     132,     328,     301
    4529,     118,     119,     759,     123
    4530,     182,     178,     266,      67
    4531,     736,    1126,     193,     133
    4532,     630,     189,    1343,    1491
    4533,     849,     864,    1685,     875
    4534,     296,     719,     939,     131
    4535,    1109,    1887,    1804,    1884
    4536,     923,    1839,    1563,    1556
    4537,     865,     864,     874,    1108
    4538,     757,     476,     807,     942
    4539,     762,     369,    1571,     767
    4540,     130,    1126,     133,     132
    4541,    1138,     999,     994,    1086
    4542,     736,    1126,     130,     291
    4543,     697,     434,     538,      80
    4544,      84,     888,     871,     323
    4545,     978,    1556,    1333,    1108
    4546,     336,     350,     338,     341
    4547,     804,    1876,     869,    1875
    4548,     870,     869,    1563,    1839
    4549,     761,    1878,    1057,     496
    4550,     583,     879,     322,      83
    4551,    1075,    1662,    1904,     189
    4552,    1702,    1327,    1326,    1699
    4553,    1075,    1662,     189,     191
    4554,     407,    1306,     392,    1574
    4555,     563,     562,    1456,    1031
    4556,     423,     866,     424,     380
    4557,     888,     871,     977,     533
    4558,    1760,     787,    1441,    1477
    4559,     741,     965,     392,    1562
    4560,     880,     659,    1817,    1681
    4561,     408,     524,    1411,    1151
    4562,     995,     424,    1905,     380
    4563,     788,     787,    1441,     496
    4564,    1813,    1816,    1440,    1472
    4565,    1878,    1696,    1441,     496
    4566,     545,    1369,    1704,    1370
    4567,     547,     546,    1378,    1271
    4568,     545,     547,    1370,    1271
    4569,     100,     101,     731,     138
    4570,     465,    1436,    1704,    1454
    4571,     100,      94,     101,     103
    4572,     434,     542,     538,     540
    4573,    1011,    1609,    1246,    1606
    4574,     101,      94,    1538,     103
    4575,     101,    1536,    1671,    1167
    4576,     467,    1679,    1867,    1421
    4577,     676,     678,    1014,     677
    4578,     462,    1578,    1455,    1723
    4579,     394,     567,     566,    1066
    4580,     552,     860,    1828,    1415
    4581,    1427,    1425,    1575,    1607
    4582,     459,    1577,     860,    1888
    4583,     552,    1415,    1828,    1825
    4584,     101,    1543,    1537,    1536
    4585,     460,     462,    1455,     463
    4586,     101,    1543,    1538,    1537
    4587,     427,     429,     430,    1825
    4588,     321,     333,     870,     802
    4589,     422,     593,     430,     419
    4590,     541,     540,    1808,     542
    4591,     802,    1840,    1555,    1554
    4592,     978,     867,    1333,     923
    4593,     978,     923,    1333,    1556
    4594,      11,     403,     405,     724
    4595,     481,    1102,     483,    1401
    4596,     481,    1102,    1401,    1821
    4597,      12,     483,     481,    1102
    4598,     481,     483,    1423,    1710
    4599,    1039,     599,    1037,     901
    4600,     482,     481,    1404,    1387
    4601,     482,    1894,     481,    1387
    4602,     481,    1821,    1171,    1894
    4603,     353,     413,     769,     670
    4604,      10,     481,    1423,    1404
    4605,    1328,    1437,     295,    1330
    4606,    1395,     285,    1394,    1583
    4607,     837,    1355,     818,     566
    4608,    1746,    1906,    1848,    1745
    4609,    1746,    1848,    1906,    1907
    4610,    1432,    1560,    1553,    1435
    4611,     167,     544,     171,     166
    4612,    1847,    1437,    1446,    1907
    4613,    1437,    1446,    1907,    1746
    4614,    1495,    1497,    1496,    1750
    4615,    1741,     295,    1746,    1446
    4616,    1741,    1745,    1742,    1583
    4617,    1748,     274,     823,    1294
    4618,    1746,    1742,    1848,    1329
    4619,     174,    1157,     920,    1018
    4620,    1827,    1835,    1714,     720
    4621,     479,    1827,    1102,     720
    4622,     824,    1711,    1244,    1770
    4623,     335,     338,     768,     341
    4624,     797,    1098,    1096,     800
    4625,    1098,     714,     800,    1366
    4626,    1495,    1497,    1309,    1498
    4627,     797,     799,    1096,     402
    4628,    1096,     800,     712,     799
    4629,    1096,     402,     835,    1066
    4630,    1398,    1258,    1535,    1352
    4631,     887,     558,     554,    1264
    4632,      60,     674,    1521,    1291
    4633,     140,     557,     556,     558
    4634,     434,     533,     535,     541
    4635,     356,     297,     130,     299
    4636,     835,    1096,     799,     402
    4637,     335,     396,     337,     342
    4638,      62,      64,      71,      73
    4639,    1105,      73,    1635,    1544
    4640,      62,      64,      72,      71
    4641,     712,     799,    1501,    1096
    4642,    1514,     269,    1247,     271
    4643,    1027,     730,     355,    1000
    4644,     631,      72,     632,     634
    4645,      64,      73,    1390,      71
    4646,     217,    1585,     594,    1584
    4647,     698,    1101,     853,    1593
    4648,    1336,    1593,    1324,    1807
    4649,    1514,    1215,     269,    1214
    4650,     836,     146,     887,     558
    4651,     146,     838,     558,     836
    4652,     533,     541,     977,    1232
    4653,     852,    1799,     698,     853
    4654,     302,     192,     711,     717
    4655,     838,      50,     140,     557
    4656,     838,    1213,      50,     557
    4657,     204,     673,    1528,    1256
    4658,     750,    1532,     833,    1688
    4659,    1531,     834,    1024,     832
    4660,    1892,    1855,     261,    1856
    4661,    1521,    1522,    1724,    1523
    4662,     208,     211,    1069,     209
    4663,     730,     271,    1247,    1393
    4664,    1514,     730,     271,    1247
    4665,     354,    1716,    1000,    1001
    4666,     838,     836,    1215,     558
    4667,    1514,    1214,     838,    1215
    4668,     675,    1123,    1872,    1124
    4669,    1305,    1349,    1767,    1773
    4670,     414,    1002,     893,    1690
    4671,     662,    1573,     664,    1403
    4672,     261,    1908,    1892,    1856
    4673,    1000,    1854,    1716,    1386
    4674,     977,     541,    1808,    1677
    4675,    1276,    1403,    1540,    1278
    4676,     693,     696,     726,     694
    4677,    1000,    1908,    1716,    1854
    4678,    1001,    1003,    1002,    1856
    4679,      78,      77,      64,     631
    4680,     433,     693,     721,     726
    4681,    1001,    1908,    1856,    1716
    4682,    1525,    1908,    1854,    1526
    4683,     756,    1001,    1908,     261
    4684,     261,    1360,    1819,    1892
    4685,    1892,    1908,    1313,    1526
    4686,     693,    1743,     721,     726
    4687,     693,     726,     696,    1743
    4688,     693,     904,    1743,    1744
    4689,     693,     904,    1744,    1156
    4690,     983,    1478,     920,    1479
    4691,     286,     284,    1022,    1020
    4692,     920,    1156,     988,    1478
    4693,     397,     388,    1618,     820
    4694,     800,    1362,    1366,     714
    4695,     983,     987,     986,     984
    4696,    1837,     892,    1093,     894
    4697,     753,     415,     672,     241
    4698,    1021,     286,    1020,    1486
    4699,     563,    1031,    1098,    1029
    4700,     295,     279,     281,     282
    4701,     283,     289,     499,     287
    4702,    1307,     666,    1375,    1365
    4703,     484,     654,       9,     485
    4704,     412,     408,    1400,    1713
    4705,     412,    1713,     411,     408
    4706,     821,    1003,    1843,    1358
    4707,     254,     777,     397,    1618
    4708,    1837,     894,    1093,    1045
    4709,    1813,    1814,    1815,    1474
    4710,    1439,    1477,    1183,    1473
    4711,     344,     407,     412,    1306
    4712,     712,    1203,    1096,    1501
    4713,    1813,    1180,    1111,    1814
    4714,     412,     407,    1487,    1306
    4715,    1617,    1696,    1816,    1359
    4716,     403,     405,     410,     407
    4717,     493,    1194,      58,    1195
    4718,      11,     403,     404,     405
    4719,    1174,    1404,    1423,    1171
    4720,    1307,    1120,     351,     666
    4721,     563,     567,    1456,     562
    4722,     917,    1410,    1166,    1367
    4723,     929,    1418,    1879,    1409
    4724,     916,    1588,     915,    1592
    4725,    1307,     666,    1365,    1121
    4726,     820,     397,     343,    1319
    4727,     724,    1732,    1579,    1484
    4728,     820,    1120,     343,    1118
    4729,    1385,    1384,    1874,    1835
    4730,    1874,    1714,    1835,    1384
    4731,    1821,    1827,    1820,    1102
    4732,    1307,    1118,    1120,    1121
    4733,     820,     821,    1118,     819
    4734,    1118,    1843,     821,    1119
    4735,    1118,    1841,    1119,    1121
    4736,    1118,    1119,    1841,    1843
    4737,     837,    1355,     565,    1502
    4738,     837,     567,     560,     393
    4739,     637,    1790,    1788,    1833
    4740,     565,    1693,     393,    1357
    4741,     565,     828,    1693,    1515
    4742,     109,     730,    1000,     355
    4743,     608,     611,    1615,     609
    4744,    1027,    1000,    1213,    1854
    4745,    1027,    1000,    1854,    1525
    4746,     307,     453,     308,     314
    4747,     829,    1393,     730,    1247
    4748,     580,      77,      78,     631
    4749,     581,     174,     582,     580
    4750,     612,     610,     884,     608
    4751,     152,     638,     153,     494
    4752,      64,      72,     631,      77
    4753,     613,     826,    1080,    1079
    4754,      64,     591,     633,      65
    4755,      64,     633,     632,    1390
    4756,    1018,     920,     249,     918
    4757,     849,     862,    1504,    1685
    4758,     488,     844,     489,     590
    4759,     488,     653,     499,     172
    4760,     484,     283,       9,     499
    4761,       8,       7,     174,     705
    4762,     157,     787,     788,     496
    4763,     487,     498,     484,     489
    4764,     484,     489,     218,     487
    4765,     489,     842,    1909,     844
    4766,     495,    1597,     882,    1524
    4767,     488,     842,     489,     844
    4768,     606,     783,    1007,    1010
    4769,    1625,     783,    1045,    1007
    4770,    1045,    1010,    1837,    1007
    4771,     606,    1007,    1009,    1010
    4772,    1007,    1632,    1008,    1009
    4773,    1007,    1632,    1838,    1631
    4774,     577,    1606,    1759,    1604
    4775,     607,      46,      50,     838
    4776,     494,    1195,    1468,    1550
    4777,     611,    1078,     608,    1615
    4778,     493,    1469,    1468,    1195
    4779,     259,    1716,    1690,     354
    4780,    1000,     756,    1908,    1525
    4781,    1000,     355,    1213,    1386
    4782,    1730,    1910,    1734,    1733
    4783,     354,     355,    1386,     670
    4784,    1000,    1001,    1716,    1908
    4785,    1051,    1049,    1404,    1405
    4786,     359,     626,     762,    1052
    4787,     766,    1051,    1052,     626
    4788,    1174,     626,    1191,    1423
    4789,    1174,    1051,    1423,    1404
    4790,    1049,     745,     806,    1051
    4791,     243,    1288,    1038,    1176
    4792,     243,      26,     280,     444
    4793,     849,    1074,    1504,     476
    4794,     600,    1198,    1199,    1197
    4795,     849,     732,     875,    1321
    4796,    1506,     862,    1504,     889
    4797,     443,     446,    1851,    1457
    4798,     279,    1330,    1458,    1457
    4799,     282,     279,    1328,     295
    4800,     394,     567,     563,     562
    4801,     862,    1504,     889,     849
    4802,     849,     875,     865,     864
    4803,     849,     865,     889,     862
    4804,    1224,    1687,    1668,    1674
    4805,    1224,    1036,    1227,    1043
    4806,     899,     601,    1649,    1197
    4807,    1224,     235,    1036,    1043
    4808,    1198,     600,    1200,     899
    4809,     443,    1457,    1851,    1331
    4810,    1224,    1674,    1668,    1227
    4811,      25,     775,     656,       6
    4812,     497,    1481,    1021,    1476
    4813,     867,     865,     862,     889
    4814,     752,    1043,    1672,     753
    4815,    1176,     706,    1287,     703
    4816,     751,    1672,     752,    1670
    4817,     531,      21,    1371,     665
    4818,     896,    1464,    1351,    1809
    4819,     706,    1287,    1131,    1286
    4820,     648,     646,     647,     791
    4821,    1868,    1661,    1852,    1692
    4822,     199,     114,    1447,    1852
    4823,     198,    1447,     114,     116
    4824,     531,    1420,     526,    1582
    4825,     914,     531,      21,    1371
    4826,       7,     641,    1053,      29
    4827,    1450,    1451,    1452,    1911
    4828,     906,     927,    1452,    1488
    4829,     234,     729,     878,    1154
    4830,    1448,    1449,     906,    1452
    4831,    1023,    1146,    1026,    1184
    4832,     639,      30,     174,     640
    4833,     701,    1112,     918,     988
    4834,    1891,     942,     123,     943
    4835,     250,      87,     252,     251
    4836,     644,     927,     248,     245
    4837,    1146,     440,    1302,    1186
    4838,    1023,    1186,    1146,    1184
    4839,    1304,    1348,    1616,     856
    4840,    1146,    1302,     440,     737
    4841,     862,    1134,     863,    1135
    4842,     781,    1884,    1804,    1116
    4843,     699,    1699,    1707,    1703
    4844,     541,    1113,    1677,    1232
    4845,     888,    1554,    1108,     874
    4846,     370,    1812,     516,     369
    4847,    1303,    1304,    1691,     737
    4848,    1326,     373,    1270,    1268
    4849,    1305,    1025,     239,    1026
    4850,     802,    1839,    1556,    1555
    4851,    1840,     979,    1885,    1859
    4852,     630,    1107,     629,    1500
    4853,     888,     978,     323,     867
    4854,    1305,    1026,    1184,    1767
    4855,     862,    1505,    1134,    1506
    4856,     804,     869,    1839,    1875
    4857,    1061,     808,    1065,      22
    4858,    1382,    1383,    1061,    1571
    4859,    1658,     868,     804,    1875
    4860,     872,    1347,     979,    1808
    4861,    1107,    1344,     700,    1703
    4862,     803,    1904,    1343,     189
    4863,    1061,    1065,    1052,    1571
    4864,    1051,     808,    1049,    1065
    4865,     409,    1399,    1127,    1400
    4866,     743,      15,     747,    1712
    4867,     742,    1662,     191,      15
    4868,     868,    1876,     804,    1875
    4869,     805,     360,     806,     409
    4870,      20,     997,      21,     663
    4871,     853,    1799,    1863,    1517
    4872,     808,    1061,    1052,     805
    4873,     432,     698,     852,     377
    4874,     805,    1127,     660,     437
    4875,     510,     508,     512,    1511
    4876,     198,     840,    1447,    1223
    4877,     194,     113,     719,     116
    4878,    1827,    1874,    1714,    1835
    4879,     194,     329,     163,     197
    4880,    1209,     685,    1219,    1212
    4881,     972,    1218,    1384,    1419
    4882,     971,    1384,    1581,    1419
    4883,     198,     114,     113,     116
    4884,     198,     199,     114,    1447
    4885,     198,     197,     330,     116
    4886,    1209,    1218,    1217,    1453
    4887,     907,     595,     596,     760
    4888,     519,     245,     760,     907
    4889,    1448,     722,     723,     721
    4890,     613,     615,    1078,    1077
    4891,    1615,    1548,    1550,    1549
    4892,     605,     400,     799,     396
    4893,     513,     595,    1099,     723
    4894,     513,    1099,     595,     597
    4895,     595,     760,     597,     596
    4896,     519,     907,     721,     906
    4897,      49,     203,      43,      61
    4898,     236,     750,     205,     748
    4899,    1044,     859,    1060,    1229
    4900,    1224,     235,     754,    1858
    4901,     205,     748,     750,     206
    4902,     478,     924,     363,     855
    4903,     750,     206,     748,    1688
    4904,      48,     205,     207,     204
    4905,     750,    1531,     755,     832
    4906,     783,    1783,    1617,    1624
    4907,     749,     750,    1688,    1532
    4908,     419,     420,    1231,     925
    4909,     750,     832,     833,    1531
    4910,    1071,     901,    1503,    1039
    4911,    1039,     599,    1503,    1465
    4912,     527,     975,     974,    1708
    4913,     599,     775,     602,    1465
    4914,      27,     655,     656,    1037
    4915,     281,    1200,     689,     901
    4916,     527,    1295,     974,    1896
    4917,     293,     561,    1787,     143
    4918,      92,    1781,    1782,    1896
    4919,    1200,     599,     602,    1503
    4920,    1200,     901,     599,    1503
    4921,     275,     267,    1254,     276
    4922,     138,    1870,     993,     991
    4923,     770,     300,    1638,    1640
    4924,     993,     992,    1870,    1782
    4925,    1064,    1782,    1870,    1896
    4926,       1,       8,       5,       7
    4927,     138,    1168,     991,     102
    4928,     274,    1294,    1248,     823
    4929,      93,     126,     142,     125
    4930,      46,      45,     110,      44
    4931,     262,      45,     354,     413
    4932,     109,     729,     756,     108
    4933,     303,     106,     139,     141
    4934,     710,     716,     717,    1170
    4935,      91,      92,    1064,      90
    4936,     838,     558,    1214,     557
    4937,    1002,     259,    1716,    1690
    4938,     730,    1000,    1525,     756
    4939,    1296,    1762,    1527,    1763
    4940,     140,     145,     556,     144
    4941,    1027,    1000,     355,    1213
    4942,      60,      50,     355,    1310
    4943,     355,      50,    1213,    1310
    4944,     138,     991,    1168,    1870
    4945,      66,     272,     277,     718
    4946,    1638,    1149,     298,    1297
    4947,     829,     836,    1069,    1247
    4948,     840,    1447,    1223,    1661
    4949,     336,     337,     338,     352
    4950,      46,    1027,     355,      50
    4951,     888,     533,    1109,     890
    4952,     537,    1338,    1100,    1335
    4953,     514,     597,    1335,    1099
    4954,     807,     958,     812,     943
    4955,     436,     537,    1336,     697
    4956,    1109,     781,    1113,    1884
    4957,     888,    1109,     977,    1554
    4958,     888,     874,    1109,    1554
    4959,     382,     383,     813,     812
    4960,     989,    1576,    1891,     943
    4961,     813,     956,    1776,    1130
    4962,     814,    1777,     813,     958
    4963,     812,     943,     958,     957
    4964,    1109,    1884,    1232,    1887
    4965,    1109,     874,     890,    1804
    4966,     783,     821,    1358,     784
    4967,     809,      82,     373,    1270
    4968,     821,    1358,     784,    1003
    4969,     606,     417,     401,     342
    4970,     820,    1118,     821,    1119
    4971,     820,     821,    1618,    1119
    4972,    1568,    1774,    1720,     981
    4973,    1775,      89,    1778,     814
    4974,     427,     908,    1825,     553
    4975,    1024,     832,     117,    1026
    4976,     620,     425,    1422,     684
    4977,    1304,     239,    1346,    1150
    4978,    1837,    1533,    1088,    1534
    4979,    1010,    1088,    1838,    1091
    4980,     427,     430,     592,    1415
    4981,    1837,     416,    1534,    1088
    4982,     620,     685,    1190,    1689
    4983,     553,    1825,    1728,     908
    4984,     234,    1026,    1025,     112
    4985,    1617,    1816,    1625,    1624
    4986,    1180,    1182,    1814,    1474
    4987,    1111,    1565,    1009,    1814
    4988,     398,     857,     817,     560
    4989,    1828,     553,    1825,    1728
    4990,    1728,    1580,     953,     908
    4991,    1008,    1814,    1009,    1632
    4992,    1837,    1007,    1010,    1838
    4993,    1580,     908,     429,     909
    4994,     426,     620,     550,     425
    4995,     621,     620,     685,     684
    4996,     427,     908,     429,    1825
    4997,     429,     421,     909,     908
    4998,    1057,    1364,    1269,    1878
    4999,     409,    1127,     437,    1400
    5000,    1049,    1065,    1228,    1405
    5001,    1061,    1228,    1065,    1403
    5002,     368,     516,     518,     517
    5003,     659,     367,     628,     369
    5004,     364,    1040,     963,     965
    5005,    1812,     370,    1877,     587
    5006,     370,     516,    1794,     518
    5007,     370,     369,     659,    1812
    5008,     319,     370,     584,    1136
    5009,    1487,     412,    1559,     410
    5010,     408,    1399,    1400,    1713
    5011,     971,     479,     720,    1835
    5012,    1194,    1057,    1375,    1269
    5013,     667,    1375,    1194,    1057
    5014,     914,    1372,    1582,    1371
    5015,    1057,    1307,    1365,    1311
    5016,     914,    1372,    1834,    1588
    5017,     960,     912,     911,    1153
    5018,    1057,    1375,    1269,    1364
    5019,     349,     761,    1057,     351
    5020,     886,     490,    1878,     496
    5021,    1912,    1158,    1159,    1160
    5022,    1727,    1912,    1159,    1610
    5023,     490,    1878,     496,    1057
    5024,     783,    1007,    1010,    1045
    5025,     921,     686,     589,     320
    5026,    1039,     901,    1037,    1480
    5027,     453,     308,      39,      37
    5028,     867,     253,    1135,     922
    5029,     862,     867,     253,    1135
    5030,     250,     253,     922,     589
    5031,     712,    1901,     715,     714
    5032,    1225,    1673,    1675,     715
    5033,     325,     921,     323,     923
    5034,     921,     922,    1085,    1084
    5035,     633,    1899,     632,    1390
    5036,    1333,     867,    1085,     923
    5037,     488,    1104,     652,     590
    5038,    1015,     170,    1013,     543
    5039,    1246,    1013,    1252,    1012
    5040,    1252,    1012,    1726,    1246
    5041,     543,    1011,    1059,     577
    5042,      28,      25,      27,     656
    5043,    1633,     632,    1811,    1634
    5044,     705,    1913,     706,     703
    5045,     827,     544,     546,    1273
    5046,     601,    1197,    1646,    1649
    5047,     827,    1718,     544,    1273
    5048,     609,    1718,     827,    1866
    5049,     827,    1867,     546,     467
    5050,    1867,     827,    1679,     467
    5051,     604,     903,     601,    1284
    5052,     903,     899,     601,    1649
    5053,     826,     827,    1679,     617
    5054,      26,     706,     603,     444
    5055,    1148,    1729,    1208,    1147
    5056,     132,    1653,     328,     301
    5057,     466,     166,     827,     614
    5058,     797,     563,     402,    1096
    5059,     335,     562,    1030,     338
    5060,     181,    1641,    1293,    1249
    5061,    1147,     300,    1652,    1640
    5062,    1176,    1178,    1177,    1288
    5063,     827,     617,     614,     610
    5064,     703,    1017,    1016,    1913
    5065,       2,     281,       4,      27
    5066,     337,     395,     778,     397
    5067,     641,     986,     645,     984
    5068,     983,     985,     987,    1479
    5069,    1016,    1019,    1913,    1017
    5070,     705,     706,    1913,    1131
    5071,     398,     395,     778,     560
    5072,     439,     440,    1035,     400
    5073,     400,     254,     238,     255
    5074,     400,     255,     399,     254
    5075,     642,     645,     643,     984
    5076,     213,     640,     247,     246
    5077,     759,     757,     946,     694
    5078,     918,    1018,     580,     249
    5079,     255,     856,     399,    1150
    5080,     393,     395,     778,     337
    5081,    1914,    1903,    1089,    1485
    5082,     983,    1156,    1801,     984
    5083,     396,     398,     799,     402
    5084,     947,    1090,     988,    1478
    5085,     396,     400,     799,     737
    5086,     163,     150,     339,     330
    5087,    1900,    1234,    1317,    1667
    5088,    1258,    1667,    1234,    1155
    5089,    1258,      52,    1155,    1234
    5090,     281,     294,     899,     278
    5091,      54,     208,     146,     839
    5092,     135,     887,     840,     839
    5093,    1157,     704,     986,     985
    5094,     693,    1744,    1743,     695
    5095,     198,     339,     135,     840
    5096,    1361,     694,    1485,     695
    5097,     468,    1233,      52,    1317
    5098,     139,     559,      98,     104
    5099,    1025,     112,    1339,    1350
    5100,    1915,    1535,    1340,    1667
    5101,      54,      53,      96,      98
    5102,    1340,    1398,    1339,    1024
    5103,     607,    1514,      46,     838
    5104,    1258,    1667,    1340,    1535
    5105,     903,    1284,    1475,    1646
    5106,     903,    1470,     900,     278
    5107,    1282,     243,    1038,     900
    5108,     903,     900,    1475,    1279
    5109,     185,     181,    1249,    1169
    5110,     182,     177,     185,     275
    5111,     862,    1685,    1505,    1504
    5112,     175,     185,     711,     181
    5113,    1074,     476,    1800,    1504
    5114,    1085,     867,     863,    1135
    5115,      79,     811,      83,      82
    5116,     871,     979,    1840,     977
    5117,    1085,     863,    1332,    1135
    5118,    1108,     867,     865,     863
    5119,     862,     863,    1505,     864
    5120,     631,    1634,     651,     634
    5121,       2,      27,     775,     599
    5122,     581,     580,     631,     651
    5123,     887,    1215,     966,     836
    5124,     955,    1085,     923,    1138
    5125,     891,    1344,     700,    1706
    5126,     250,     867,     253,     889
    5127,    1086,     954,    1084,    1115
    5128,     836,    1222,     839,    1069
    5129,      46,     829,     210,     110
    5130,    1306,     347,    1905,    1557
    5131,      46,    1027,    1514,     730
    5132,    1085,     922,    1135,    1084
    5133,     379,     380,     999,     994
    5134,     829,     210,    1393,     211
    5135,     923,     870,     955,    1563
    5136,      46,     730,     829,     110
    5137,     243,     706,    1286,    1287
    5138,     122,     758,     812,     989
    5139,     382,     385,      75,    1544
    5140,     943,     807,     758,     812
    5141,     382,     374,    1130,     813
    5142,     862,    1134,     253,    1506
    5143,     705,     703,    1016,    1913
    5144,     749,    1669,    1668,    1687
    5145,     809,     373,     811,     383
    5146,     109,     730,     756,    1000
    5147,     135,     137,     967,     136
    5148,     135,     339,     839,     840
    5149,     841,     967,     966,     968
    5150,     967,     840,    1692,     199
    5151,     707,     967,    1512,     136
    5152,     780,    1113,    1884,    1678
    5153,    1045,     784,     417,     783
    5154,    1282,     900,    1280,    1286
    5155,     780,    1140,     723,    1139
    5156,     780,    1884,     781,    1116
    5157,     780,    1139,    1113,    1678
    5158,     722,     780,     781,    1116
    5159,     548,    1368,    1553,    1719
    5160,     361,     741,     743,     744
    5161,     638,    1378,    1468,    1433
    5162,     740,     579,    1605,     680
    5163,     158,     549,     362,     224
    5164,    1147,    1638,     300,    1640
    5165,     359,     361,     389,     360
    5166,     361,     360,     390,     389
    5167,     741,     965,    1562,    1322
    5168,     280,     899,     903,     278
    5169,     464,    1272,    1416,    1867
    5170,     389,     391,     741,     392
    5171,     741,     742,     743,      17
    5172,     741,     391,      17,    1323
    5173,    1029,    1034,    1695,    1028
    5174,    1752,     546,    1272,     465
    5175,    1097,    1029,    1694,    1028
    5176,     800,    1006,    1362,    1363
    5177,    1097,    1366,     800,    1362
    5178,    1237,     411,    1483,    1238
    5179,    1282,     903,    1284,    1279
    5180,     605,     797,     800,    1006
    5181,     959,    1462,    1239,    1579
    5182,     522,     960,     411,    1237
    5183,     797,    1097,     800,    1006
    5184,    1174,    1423,    1191,    1171
    5185,    1174,     766,    1172,    1193
    5186,     405,    1484,     962,     859
    5187,     664,    1818,    1228,    1403
    5188,     584,     587,     586,    1877
    5189,     411,     524,     408,    1151
    5190,     584,    1136,    1795,     588
    5191,     370,     584,    1136,    1795
    5192,     410,     411,    1489,    1483
    5193,     741,    1562,     392,    1323
    5194,     965,    1562,    1322,     963
    5195,     658,     657,    1407,     898
    5196,     316,     688,     322,     880
    5197,     324,      84,     871,     323
    5198,     319,    1136,     584,     320
    5199,     236,     753,     751,     672
    5200,    1890,    1503,    1809,    1071
    5201,     751,     672,    1528,     204
    5202,     205,     748,     207,     204
    5203,     751,     204,    1528,    1256
    5204,     207,    1256,     748,    1316
    5205,     749,    1669,    1532,    1688
    5206,     489,     498,    1586,     487
    5207,    1873,    1669,    1315,    1688
    5208,     824,    1768,     734,    1769
    5209,     583,     588,     584,     586
    5210,     266,     267,     937,    1299
    5211,     587,    1916,    1666,    1665
    5212,     451,    1639,    1715,     448
    5213,      87,     583,     251,     250
    5214,    1768,    1769,    1770,    1898
    5215,     583,     586,     587,     585
    5216,     587,    1812,     659,    1683
    5217,     587,     879,    1683,     659
    5218,     706,    1287,     703,    1913
    5219,     389,     744,     964,     965
    5220,     361,     742,     188,     747
    5221,    1392,    1642,    1244,    1711
    5222,     293,    1787,     561,     448
    5223,    1898,     734,    1751,    1786
    5224,    1392,    1645,    1244,    1642
    5225,     741,     744,    1572,     743
    5226,    1391,     448,     451,    1715
    5227,     734,    1768,    1162,    1786
    5228,     449,     561,    1206,     448
    5229,     624,    1561,     626,    1423
    5230,     389,     392,     741,     965
    5231,    1785,    1164,    1765,    1766
    5232,    1026,    1146,     239,    1305
    5233,    1025,    1026,    1767,    1339
    5234,    1025,     112,    1350,    1345
    5235,     239,    1026,     234,    1023
    5236,    1025,     239,    1345,    1346
    5237,    1284,    1038,     604,     903
    5238,     264,      66,     265,    1766
    5239,      23,     244,    1176,    1325
    5240,     946,    1089,    1074,    1800
    5241,     903,    1646,    1475,    1649
    5242,    1220,    1852,     114,    1686
    5243,     938,     137,     937,    1686
    5244,     849,     472,     473,     476
    5245,     277,     265,    1697,    1627
    5246,    1772,    1657,      69,    1785
    5247,    1657,    1737,    1738,    1637
    5248,     849,    1074,     732,    1321
    5249,     841,    1188,    1512,     968
    5250,     476,     732,     694,     473
    5251,     136,    1299,    1512,    1255
    5252,     198,    1223,    1447,     330
    5253,     304,     991,     992,     990
    5254,     198,    1447,     116,     330
    5255,     505,     510,    1585,    1517
    5256,     721,     519,     906,     905
    5257,     849,     476,    1504,     889
    5258,      63,     844,      65,     594
    5259,    1074,    1685,    1684,    1321
    5260,    1040,    1917,    1572,    1041
    5261,    1918,    1060,    1042,    1917
    5262,     836,    1069,    1247,    1216
    5263,     457,     467,    1867,    1421
    5264,    1040,    1572,    1322,     965
    5265,     418,    1093,     416,     386
    5266,    1525,     271,    1314,    1526
    5267,    1514,     269,     270,    1214
    5268,     730,    1525,     271,    1314
    5269,     364,     855,    1040,     964
    5270,     834,     830,     833,    1531
    5271,    1044,     364,     855,    1060
    5272,     670,    1690,    1725,    1386
    5273,     207,     203,     204,    1257
    5274,     364,    1044,     859,    1060
    5275,    1040,     964,    1041,    1572
    5276,     674,     673,     203,    1292
    5277,    1043,    1227,    1672,    1087
    5278,     418,    1092,    1087,    1088
    5279,    1040,    1572,    1917,    1322
    5280,     416,    1872,    1123,    1534
    5281,     261,    1892,    1908,    1313
    5282,    1001,    1002,    1716,    1856
    5283,     109,     756,     730,     108
    5284,     274,     275,    1254,     276
    5285,     737,     846,    1691,    1302
    5286,     274,     273,     276,    1749
    5287,     112,     878,    1350,    1345
    5288,     104,      94,     100,     103
    5289,     837,     565,    1357,    1502
    5290,     490,     886,    1269,     885
    5291,     612,    1548,     884,     885
    5292,     637,     161,     495,    1431
    5293,      54,     208,     839,     468
    5294,    1194,      58,    1375,     667
    5295,    1375,    1269,    1364,    1377
    5296,     184,     183,    1318,      94
    5297,     459,    1577,     463,     460
    5298,     735,     163,     339,     197
    5299,     785,    1790,     787,    1760
    5300,     306,     310,     530,     311
    5301,      94,      97,      95,    1318
    5302,     855,     924,    1142,     478
    5303,    1237,    1484,    1579,    1239
    5304,    1423,    1709,    1171,    1710
    5305,    1102,    1821,    1827,    1401
    5306,    1835,     479,     720,    1827
    5307,      94,    1538,     103,      97
    5308,     482,    1388,    1587,    1389
    5309,     482,    1389,    1894,    1387
    5310,     101,    1538,      94,    1671
    5311,     101,     138,     102,    1168
    5312,     284,    1395,     285,    1394
    5313,     425,    1422,     684,    1189
    5314,     427,     551,     772,     425
    5315,     314,     309,     307,     458
    5316,     455,     461,     454,      37
    5317,     681,    1831,    1830,    1453
    5318,     427,     430,    1415,    1825
    5319,     772,     427,     592,    1415
    5320,     362,     547,     544,     638
    5321,     612,     494,     609,    1550
    5322,     544,     547,     546,    1378
    5323,     544,    1378,     546,    1273
    5324,     544,    1468,     638,    1378
    5325,     949,     928,    1739,    1094
    5326,    1147,     298,    1638,    1149
    5327,     170,    1012,    1011,     579
    5328,     309,     684,     682,     456
    5329,    1095,    1880,    1740,    1602
    5330,    1912,    1160,    1159,    1610
    5331,     153,     635,     154,     610
    5332,    1081,    1829,    1082,    1083
    5333,     544,    1468,     494,     638
    5334,    1882,    1110,     443,     287
    5335,    1871,     442,    1735,     441
    5336,     442,     443,    1871,    1882
    5337,     443,     279,     446,    1457
    5338,     282,    1430,     285,     295
    5339,     279,     446,     288,     443
    5340,     443,    1871,    1850,     441
    5341,    1741,    1430,    1328,     295
    5342,     549,    1368,    1253,    1369
    5343,     332,     630,     190,     331
    5344,     625,     629,     767,     764
    5345,     332,     321,     630,     331
    5346,     487,    1797,    1551,    1552
    5347,     499,    1104,     489,     498
    5348,     441,    1851,    1861,    1734
    5349,     504,     506,     509,     512
    5350,    1107,     764,    1500,    1499
    5351,     880,     630,     688,    1107
    5352,    1106,    1343,     630,     189
    5353,     630,     331,     189,     190
    5354,     200,     831,     206,     833
    5355,     200,     832,     834,     833
    5356,       1,      29,       7,       6
    5357,     749,     751,    1670,     748
    5358,     750,     206,    1688,     833
    5359,     200,      51,     206,     831
    5360,     447,    1285,    1731,     933
    5361,     705,    1175,    1913,    1019
    5362,     900,    1475,    1279,    1281
    5363,    1279,    1475,    1482,    1869
    5364,     568,     307,     453,     308
    5365,     903,    1038,     604,      24
    5366,      53,     210,     607,     208
    5367,    1039,     901,    1480,    1071
    5368,     600,     601,    1197,    1199
    5369,    1541,    1688,    1542,    1315
    5370,    1541,     103,     207,    1316
    5371,     285,    1583,    1742,    1445
    5372,     900,     446,    1470,     931
    5373,     900,    1281,     931,    1470
    5374,     514,    1100,     537,     536
    5375,     532,     722,     433,     723
    5376,     725,     781,     850,     728
    5377,     759,     947,     919,    1361
    5378,     532,     535,     513,     536
    5379,     473,     725,     732,     726
    5380,     568,     453,      37,     308
    5381,    1741,    1446,    1745,    1395
    5382,     432,     853,     852,     698
    5383,     762,     367,     332,     359
    5384,     359,     808,    1051,    1052
    5385,    1746,    1745,    1907,    1906
    5386,     361,     624,     744,     747
    5387,    1174,     627,    1192,     626
    5388,     625,     765,    1174,     627
    5389,     277,    1738,    1737,    1771
    5390,     718,    1736,    1240,    1779
    5391,     718,    1637,    1241,    1736
    5392,      40,     951,      39,      38
    5393,     277,    1738,    1771,    1697
    5394,     332,     188,     331,     190
    5395,     939,    1221,    1736,    1779
    5396,     627,     625,     626,    1174
    5397,    1627,    1221,    1771,     277
    5398,     763,     629,    1500,     630
    5399,     626,    1423,    1561,    1191
    5400,    1039,    1465,    1809,    1464
    5401,    1037,    1481,    1480,    1021
    5402,     775,     792,     602,    1465
    5403,     280,     278,     903,     900
    5404,     280,     900,     447,     446
    5405,     655,     657,    1564,     876
    5406,     657,     897,    1564,     898
    5407,    1039,    1037,    1351,    1480
    5408,    1039,    1351,    1809,    1480
    5409,     443,    1871,    1430,    1328
    5410,     497,    1844,    1481,    1476
    5411,     655,     897,    1481,    1844
    5412,     657,    1564,    1145,     898
    5413,     243,     444,     900,    1286
    5414,     906,    1452,     927,    1450
    5415,     444,     900,    1286,     933
    5416,     444,    1286,     706,    1131
    5417,     511,     487,     842,    1845
    5418,     487,    1909,    1845,    1797
    5419,     511,     487,    1845,    1510
    5420,     603,    1131,     444,     706
    5421,     854,     760,     907,     596
    5422,     468,     839,     339,    1070
    5423,     842,     844,    1845,    1909
    5424,      77,      72,     634,     918
    5425,    1039,     658,    1464,    1351
    5426,    1233,    1236,    1235,     230
    5427,     611,     613,    1078,    1079
    5428,     147,     162,     149,     148
    5429,    1336,    1338,    1337,    1807
    5430,    1863,    1516,     508,    1517
    5431,     468,     164,    1233,     147
    5432,     514,    1101,     537,    1335
    5433,     851,     597,     507,    1862
    5434,     851,     508,    1862,     507
    5435,    1337,    1593,    1806,    1863
    5436,     468,     147,    1233,    1308
    5437,     147,     164,     230,     162
    5438,     853,    1517,    1863,     508
    5439,    1233,     149,     230,    1235
    5440,     417,    1045,     783,    1010
    5441,     466,     171,     467,     827
    5442,     418,    1093,    1010,    1088
    5443,     417,     418,    1010,     798
    5444,    1398,    1535,    1350,    1519
    5445,    1398,    1519,    1352,    1535
    5446,     829,     211,    1393,    1247
    5447,     418,    1010,    1091,    1088
    5448,    1010,     798,    1091,    1006
    5449,     606,    1010,    1006,     798
    5450,    1339,    1342,    1341,    1767
    5451,     112,    1350,     878,    1519
    5452,     537,     539,    1100,    1338
    5453,     783,    1625,    1617,    1008
    5454,     726,     727,     728,     696
    5455,     539,     536,     534,     434
    5456,     432,     377,     436,     698
    5457,     417,    1045,    1093,     260
    5458,     533,     541,    1232,    1113
    5459,     894,    1045,    1837,    1631
    5460,     732,     875,    1321,     728
    5461,      88,    1778,     807,    1546
    5462,    1109,    1804,    1887,     874
    5463,    1887,    1232,    1554,    1886
    5464,    1703,    1107,    1682,     699
    5465,    1741,    1486,     295,    1446
    5466,    1328,    1849,    1742,    1329
    5467,     454,     467,    1421,    1679
    5468,    1232,    1919,    1886,    1887
    5469,    1394,    1022,     284,    1020
    5470,     295,     294,    1289,     902
    5471,     801,    1659,     979,    1904
    5472,     803,     979,    1347,    1904
    5473,     977,     979,    1859,    1808
    5474,     282,     285,     284,     295
    5475,     500,     285,    1445,    1444
    5476,    1658,     802,     804,     801
    5477,     802,    1840,    1659,    1555
    5478,    1885,    1660,    1659,    1555
    5479,     868,      16,    1664,      15
    5480,    1658,    1660,    1664,    1875
    5481,     742,      15,     868,    1662
    5482,     746,     661,     869,     866
    5483,     282,    1430,     443,     287
    5484,    1353,    1502,    1354,    1515
    5485,    1790,    1431,     785,     637
    5486,     565,    1357,    1502,    1693
    5487,     637,    1788,    1334,    1833
    5488,     637,    1431,     785,     161
    5489,     160,    1334,     637,     578
    5490,    1835,    1219,    1385,     970
    5491,     970,    1689,     479,    1835
    5492,     785,     787,     496,    1441
    5493,     523,     371,     910,     522
    5494,    1414,    1209,    1218,    1385
    5495,    1385,     970,    1384,    1835
    5496,     685,    1219,    1190,    1689
    5497,     785,    1760,     787,    1441
    5498,    1211,    1453,    1210,    1209
    5499,     637,    1790,     787,     785
    5500,     160,     495,     637,     161
    5501,     454,     779,    1679,    1421
    5502,    1211,    1080,    1832,     683
    5503,    1081,     649,    1082,    1829
    5504,     827,    1273,    1867,    1866
    5505,     785,     881,     161,    1431
    5506,    1147,    1729,     300,     298
    5507,     570,     452,     649,     614
    5508,    1147,     300,    1729,    1652
    5509,      33,    1529,      34,    1429
    5510,     455,     459,     463,     460
    5511,     157,     785,     496,     161
    5512,    1181,     789,    1864,     786
    5513,     155,     884,     882,     885
    5514,     614,     615,    1082,     618
    5515,     543,    1059,     738,     577
    5516,     463,    1888,    1436,    1455
    5517,    1209,     685,     682,     313
    5518,    1752,    1271,    1704,    1459
    5519,    1752,    1272,    1417,    1436
    5520,     826,     683,    1080,     779
    5521,     157,     785,     787,     496
    5522,     886,     785,     161,     496
    5523,     794,    1864,    1034,     793
    5524,     637,     785,     787,     786
    5525,     794,     786,    1864,     793
    5526,     493,     883,    1195,     494
    5527,    1194,      58,    1195,    1196
    5528,     883,    1269,    1196,     885
    5529,     161,     155,     881,     886
    5530,     155,     490,     886,     161
    5531,     667,     352,     350,     669
    5532,     667,    1057,     351,    1375
    5533,      58,      56,     667,    1194
    5534,     938,    1221,    1626,    1627
    5535,     455,     462,      37,     460
    5536,     925,     421,    1732,     429
    5537,     925,     419,     421,     429
    5538,     924,     858,    1229,     925
    5539,     568,     649,     307,     573
    5540,     855,    1042,    1060,    1040
    5541,     925,     858,    1229,    1732
    5542,     422,     426,     421,     427
    5543,    1060,    1230,    1274,    1229
    5544,     420,     925,     924,    1144
    5545,     480,     924,     925,     858
    5546,     848,     888,     865,     890
    5547,     848,     865,     867,     889
    5548,    1060,    1918,    1274,    1230
    5549,     867,     862,     253,     889
    5550,     855,    1042,    1063,    1274
    5551,     867,    1135,     862,     863
    5552,     584,    1136,     588,     320
    5553,     867,     323,     923,     978
    5554,     605,     800,     798,    1006
    5555,    1821,    1820,    1894,    1389
    5556,    1006,    1363,     800,     798
    5557,    1224,    1043,     752,     235
    5558,    1423,    1709,    1561,    1191
    5559,     744,    1709,    1041,     747
    5560,    1051,     766,    1065,    1172
    5561,    1391,    1645,    1642,    1644
    5562,     439,     418,     237,     258
    5563,     418,     798,    1036,    1092
    5564,    1036,    1043,    1092,    1227
    5565,     713,    1225,     799,    1035
    5566,     713,    1035,    1226,    1225
    5567,    1837,    1093,     416,    1088
    5568,    1093,     414,     893,     892
    5569,    1361,    1801,     695,    1903
    5570,    1805,    1903,    1801,    1478
    5571,    1156,    1801,    1744,     695
    5572,     606,     342,     341,     783
    5573,     417,    1010,    1093,    1045
    5574,     386,     417,     418,    1093
    5575,     983,     641,    1157,     920
    5576,     920,     988,     918,    1479
    5577,    1156,    1801,     984,    1744
    5578,    1093,     260,    1045,    1004
    5579,     782,     263,    1312,    1360
    5580,     782,     263,    1360,     261
    5581,    1157,    1017,     985,    1018
    5582,     983,     984,    1801,     987
    5583,     821,     784,     782,    1003
    5584,     821,    1857,    1819,    1843
    5585,     170,     676,    1014,    1012
    5586,      35,      32,      36,     677
    5587,     812,    1576,     943,     957
    5588,    1105,    1635,    1547,    1544
    5589,    1105,    1635,    1576,     957
    5590,     432,     852,     501,     216
    5591,     671,    1291,    1725,    1122
    5592,     676,     579,    1609,    1012
    5593,      35,      37,     168,     170
    5594,     674,    1292,    1508,     673
    5595,     752,    1227,    1668,    1672
    5596,     262,    1001,     756,     261
    5597,      61,     675,     672,     673
    5598,     170,     676,    1012,     579
    5599,    1224,    1227,    1675,    1674
    5600,     749,     752,    1668,    1670
    5601,     892,     895,    1534,    1123
    5602,     613,    1082,     614,     615
    5603,     769,    1690,    1893,    1725
    5604,     362,     156,     638,     153
    5605,     576,    1596,    1095,     740
    5606,     613,    1083,    1077,    1080
    5607,     611,     614,     618,     615
    5608,     769,    1690,     414,     893
    5609,     232,     755,     236,     235
    5610,     166,     614,     815,     610
    5611,     614,     618,     815,     610
    5612,     712,    1501,    1225,    1901
    5613,     742,     743,      15,     747
    5614,     892,     894,    1533,     895
    5615,     235,    1858,    1226,    1186
    5616,    1006,    1009,    1362,    1091
    5617,     800,    1363,    1362,     714
    5618,     333,    1075,     742,     804
    5619,     333,     804,     746,     870
    5620,     778,     337,    1663,     393
    5621,     746,     868,    1876,     804
    5622,     746,     868,      17,    1876
    5623,    1760,    1431,     785,    1790
    5624,     361,     742,     741,     391
    5625,     886,     155,     881,     885
    5626,     797,     563,    1098,    1029
    5627,    1204,    1148,    1729,    1208
    5628,      17,     742,     743,     868
    5629,     341,    1783,     349,     348
    5630,    1276,    1278,    1539,    1277
    5631,    1118,     819,     821,    1784
    5632,     778,     398,     856,     399
    5633,     783,    1007,    1625,    1008
    5634,     819,    1359,    1783,    1784
    5635,    1307,    1118,     343,    1120
    5636,     340,     343,     820,     397
    5637,    1463,    1239,    1461,    1462
    5638,     208,     836,     839,    1069
    5639,     952,     961,     953,     951
    5640,     829,     210,     110,    1393
    5641,     111,     210,     211,    1393
    5642,    1897,    1592,    1834,    1588
    5643,     915,    1588,    1834,    1592
    5644,     553,     552,    1828,    1825
    5645,     210,     209,     469,     211
    5646,      98,     144,      59,     145
    5647,     742,     868,     804,    1075
    5648,     997,    1590,    1372,    1818
    5649,     316,     322,     628,     880
    5650,     332,     367,     762,     628
    5651,     332,     624,     188,     190
    5652,     332,     630,     321,     688
    5653,     332,     359,     334,     624
    5654,     332,     762,     359,     626
    5655,     744,     964,    1041,    1062
    5656,     713,    1675,    1363,     715
    5657,    1036,    1363,    1675,    1092
    5658,     236,     752,     751,     753
    5659,    1224,    1674,    1858,    1687
    5660,      10,     483,     745,    1423
    5661,     332,     626,     359,     624
    5662,     188,     331,     190,     189
    5663,    1439,    1477,    1438,    1183
    5664,     189,     188,    1075,     191
    5665,    1757,    1602,    1880,     740
    5666,     742,     188,     747,     191
    5667,     625,     627,     763,     765
    5668,    1107,     629,    1681,     880
    5669,     700,    1347,     873,     872
    5670,     332,     630,     880,     629
    5671,     332,     762,     629,     628
    5672,     162,     574,     163,     164
    5673,     229,    1318,     183,     470
    5674,    1334,    1788,    1604,    1833
    5675,    1597,    1431,    1895,    1788
    5676,     470,      95,    1114,    1318
    5677,     183,     229,     470,     164
    5678,     105,     470,     468,     164
    5679,     288,     280,     447,     446
    5680,     470,      95,      52,    1114
    5681,    1647,    1199,    1200,    1198
    5682,    1233,     164,     470,    1236
    5683,     310,     929,    1125,     528
    5684,    1200,    1647,    1290,    1199
    5685,     622,     314,     553,     550
    5686,    1520,    1896,     974,    1295
    5687,    1125,    1764,     315,     313
    5688,    1418,     528,     973,    1125
    5689,    1920,    1536,    1168,    1167
    5690,     368,    1795,    1136,    1320
    5691,     180,     825,     822,     450
    5692,     187,     993,      92,    1782
    5693,    1064,    1520,    1870,    1168
    5694,     100,     101,     138,     102
    5695,     731,     471,    1167,     184
    5696,     370,     584,     587,     659
    5697,     731,    1167,    1671,     184
    5698,    1064,    1870,    1520,    1896
    5699,     309,     621,     622,     311
    5700,     126,     291,     574,     736
    5701,     101,     103,    1543,     102
    5702,    1111,    1005,    1565,    1182
    5703,     101,    1671,    1536,    1538
    5704,     101,    1167,    1168,    1536
    5705,      96,     103,      99,      51
    5706,     341,     783,    1783,    1617
    5707,    1111,    1182,    1180,    1005
    5708,     606,    1111,    1005,    1006
    5709,    1448,    1451,    1140,    1117
    5710,    1448,     598,     723,    1140
    5711,     812,     989,     943,    1576
    5712,    1813,    1617,    1440,    1816
    5713,    1028,    1180,    1005,     768
    5714,     657,     927,     898,    1145
    5715,    1450,    1452,    1860,    1911
    5716,    1448,    1450,     598,    1451
    5717,     907,     596,    1450,    1145
    5718,     318,     325,     954,     317
    5719,      19,     663,     662,     408
    5720,     662,     663,    1573,    1399
    5721,     750,    1531,     833,    1532
    5722,     749,     748,    1315,    1688
    5723,    1061,      22,    1065,    1228
    5724,      18,     482,    1404,    1405
    5725,      18,      22,    1228,    1049
    5726,     365,      10,     483,     745
    5727,     366,     808,      22,    1049
    5728,      10,    1404,      18,     482
    5729,    1853,    1545,    1140,    1117
    5730,      18,     665,      13,      12
    5731,     805,     437,     409,    1127
    5732,    1657,    1637,      68,     718
    5733,     718,      66,      67,      68
    5734,      66,    1697,    1766,    1785
    5735,    1224,    1673,    1226,    1858
    5736,    1657,    1697,      66,    1785
    5737,    1657,      69,    1785,      66
    5738,    1036,    1227,    1092,    1675
    5739,     273,    1164,    1766,    1765
    5740,     713,    1363,     714,     715
    5741,    1006,    1111,    1565,    1009
    5742,     799,     845,    1501,     835
    5743,     713,     800,     714,    1363
    5744,    1035,     845,    1302,    1226
    5745,     234,     112,    1345,     878
    5746,     438,     318,     437,     378
    5747,     273,    1309,    1164,    1765
    5748,     398,     799,     402,     835
    5749,     299,     273,    1161,      69
    5750,    1035,    1225,     845,    1226
    5751,    1097,    1366,    1362,    1565
    5752,     567,     566,    1066,    1456
    5753,    1098,    1202,    1366,    1622
    5754,    1747,    1202,    1622,    1621
    5755,     797,    1097,    1005,    1028
    5756,    1096,    1066,     835,    1501
    5757,     264,     272,      67,     266
    5758,     969,     320,    1136,     317
    5759,     338,     393,     565,     352
    5760,    1619,    1381,    1620,    1611
    5761,     742,    1075,     191,    1662
    5762,    1098,    1029,    1622,    1366
    5763,    1658,    1075,     801,     804
    5764,    1029,    1622,    1619,    1747
    5765,     712,    1098,    1096,    1203
    5766,    1096,    1203,    1031,    1066
    5767,    1034,    1756,    1695,    1864
    5768,     712,    1203,    1501,    1901
    5769,    1098,    1747,    1203,    1202
    5770,     868,      15,    1664,    1662
    5771,     526,     665,    1582,    1587
    5772,     531,     528,     526,    1420
    5773,    1047,    1620,    1793,    1611
    5774,     363,     480,     371,     858
    5775,     526,      12,     665,     720
    5776,     477,     526,     530,     973
    5777,    1619,    1747,    1622,    1621
    5778,    1047,    1033,    1619,    1611
    5779,     477,     526,     971,     720
    5780,     526,    1587,     720,     665
    5781,     971,     720,     526,    1581
    5782,    1047,    1793,    1754,    1611
    5783,     526,    1420,     528,     973
    5784,     477,     478,     479,     926
    5785,    1904,     189,     803,    1075
    5786,     151,     636,     157,     161
    5787,    1224,    1675,    1225,    1673
    5788,     333,     188,     334,     742
    5789,     742,    1075,     188,     191
    5790,     799,    1225,    1501,     845
    5791,     713,    1036,    1363,    1675
    5792,     333,     188,    1075,     331
    5793,     331,     189,     188,    1075
    5794,     803,    1075,     801,    1904
    5795,     551,     684,     861,    1189
    5796,     684,     456,     861,     776
    5797,    1600,    1912,    1160,    1158
    5798,    1060,    1274,    1918,    1042
    5799,     459,     773,     551,     861
    5800,     855,    1063,     483,     478
    5801,     855,    1142,    1274,    1063
    5802,    1589,     963,     406,     962
    5803,     910,     909,    1580,     429
    5804,     364,     963,    1060,     859
    5805,     458,     550,     552,     553
    5806,     404,     366,     365,     806
    5807,     619,     480,     426,     421
    5808,     504,     511,     842,     510
    5809,     550,     620,     684,     425
    5810,     427,     422,     428,     592
    5811,     620,     970,     685,    1689
    5812,     970,    1835,     971,    1384
    5813,     684,    1190,     685,     776
    5814,     620,    1190,     684,    1422
    5815,     151,     155,     495,     161
    5816,     575,     940,     572,     315
    5817,    1141,     940,     315,     572
    5818,     927,    1450,    1860,    1145
    5819,     572,     315,    1141,     573
    5820,     572,    1275,     928,     571
    5821,     572,     928,    1275,    1141
    5822,    1373,    1560,     226,     223
    5823,     644,    1407,    1488,     646
    5824,     907,    1450,     596,     598
    5825,    1432,    1373,    1374,     223
    5826,     898,     896,    1407,     658
    5827,    1374,     828,    1434,    1623
    5828,     224,     548,    1058,     549
    5829,     225,     492,    1374,    1433
    5830,     638,     547,    1432,     225
    5831,     349,     761,     348,    1696
    5832,     225,     638,    1433,    1432
    5833,     152,     493,     155,     490
    5834,     424,    1905,    1306,     995
    5835,    1306,    1557,    1558,     347
    5836,     752,    1672,    1043,    1227
    5837,    1043,     753,    1087,    1672
    5838,    1823,     771,    1639,     451
    5839,     273,      69,      66,    1766
    5840,     232,     236,     241,     237
    5841,     939,     115,    1221,    1779
    5842,     718,    1241,    1240,    1736
    5843,     272,    1627,     937,     265
    5844,     356,    1638,     451,     449
    5845,    1204,     298,    1729,    1148
    5846,     938,    1686,    1220,     114
    5847,     938,    1220,     115,     114
    5848,     493,    1195,      58,    1469
    5849,     236,     205,     204,     748
    5850,     669,      57,     387,     667
    5851,     267,     265,     266,     937
    5852,     418,    1043,     415,    1087
    5853,     631,     634,     632,    1634
    5854,    1394,    1022,    1020,    1552
    5855,     237,     415,    1043,     753
    5856,    1633,    1899,    1811,     632
    5857,    1224,    1036,    1675,    1227
    5858,     847,     287,    1882,    1103
    5859,     682,     685,    1212,     776
    5860,    1209,     682,     685,    1212
    5861,    1209,     972,     685,     313
    5862,     621,     970,     972,     685
    5863,    1633,     632,     633,    1899
    5864,      64,     633,    1390,    1921
    5865,    1633,     631,     633,     632
    5866,     504,     511,     212,     842
    5867,     620,    1422,     926,    1689
    5868,    1209,     313,    1453,    1217
    5869,      64,     632,     631,      72
    5870,     842,    1585,    1845,     844
    5871,     479,     926,    1402,    1689
    5872,     504,     502,     511,     509
    5873,      77,    1112,      72,     918
    5874,       7,    1016,     705,     703
    5875,     505,    1584,    1799,    1517
    5876,     671,    1865,    1922,    1122
    5877,     145,     556,    1522,    1187
    5878,       1,       8,      30,       9
    5879,     174,     580,     651,    1016
    5880,     173,     650,    1050,    1175
    5881,     670,    1725,    1310,    1386
    5882,     753,    1872,    1087,    1672
    5883,     101,     103,    1538,    1543
    5884,      60,    1310,    1291,    1724
    5885,      61,      59,     674,     203
    5886,     144,    1724,     557,    1310
    5887,     355,    1386,    1310,    1213
    5888,     206,     833,    1076,    1688
    5889,    1775,    1569,    1570,    1777
    5890,     958,     807,     812,     814
    5891,     475,     812,     814,     383
    5892,     813,     956,    1777,    1776
    5893,     813,     956,    1547,    1636
    5894,    1568,     980,    1774,     981
    5895,     338,     352,     337,     393
    5896,     769,     893,    1893,    1690
    5897,     675,     416,     415,    1872
    5898,     810,    1130,     374,     813
    5899,    1775,    1778,      89,    1569
    5900,      43,      98,     607,      50
    5901,    1877,    1812,    1916,    1794
    5902,     587,    1683,    1916,    1812
    5903,     320,     921,    1084,     589
    5904,     584,    1877,     586,     588
    5905,     585,    1567,     251,     586
    5906,    1778,     807,     958,     814
    5907,     699,    1707,     981,    1682
    5908,     533,    1109,     781,    1113
    5909,    1666,    1567,    1665,    1720
    5910,    1109,    1884,    1113,    1232
    5911,     585,    1567,    1569,     251
    5912,     722,    1116,     781,     727
    5913,    1568,    1720,    1666,     981
    5914,     532,     435,     725,     781
    5915,     811,    1775,     814,      89
    5916,     781,     850,     728,    1804
    5917,     780,    1113,     781,    1884
    5918,      49,      44,     236,     241
    5919,     756,    1360,     263,     261
    5920,     756,     108,    1154,    1314
    5921,     747,     188,     624,     191
    5922,    1000,     756,    1001,    1908
    5923,     587,    1916,    1665,    1877
    5924,     803,    1343,    1904,    1347
    5925,     515,    1794,     516,     518
    5926,     730,    1314,     756,    1525
    5927,     756,     261,    1908,    1313
    5928,     982,    1682,     981,    1666
    5929,     583,     589,     588,     586
    5930,    1568,     587,    1567,     585
    5931,     587,    1812,    1916,    1877
    5932,     828,     669,    1374,     227
    5933,    1373,     226,    1560,    1509
    5934,      48,     207,     205,     206
    5935,     587,    1916,    1683,    1666
    5936,     562,     565,    1353,     828
    5937,     159,     156,     151,     157
    5938,     562,     227,    1509,    1032
    5939,    1353,     567,    1509,    1355
    5940,     124,     731,     100,      94
    5941,     349,     819,    1783,     341
    5942,    1047,    1048,    1792,    1756
    5943,    1353,     565,     567,    1355
    5944,     256,    1312,     254,     782
    5945,     610,     612,     494,     609
    5946,     388,     417,     258,     784
    5947,     786,    1758,    1864,    1833
    5948,     785,     881,    1760,     886
    5949,     238,     439,     258,     401
    5950,     440,    1186,     242,    1035
    5951,     124,      91,     127,     129
    5952,     255,    1146,     440,     737
    5953,    1035,     400,     799,     439
    5954,      57,     666,     667,     668
    5955,     341,     348,    1617,    1783
    5956,     160,     159,     636,     738
    5957,     157,     768,     788,     789
    5958,    1096,    1501,    1203,    1066
    5959,     257,    1001,     262,     261
    5960,     495,    1431,     882,    1597
    5961,     785,    1431,    1760,     881
    5962,     155,     883,     493,     494
    5963,     537,     538,    1595,     697
    5964,     537,     538,     539,    1595
    5965,     514,    1335,     537,    1100
    5966,     482,    1387,    1405,    1388
    5967,     481,    1171,    1404,    1387
    5968,     537,     434,     538,     697
    5969,     537,     536,    1100,     539
    5970,     298,    1205,    1204,    1240
    5971,    1147,    1923,    1651,    1652
    5972,    1174,    1404,    1171,    1172
    5973,     298,      68,    1297,    1205
    5974,     720,    1389,    1587,    1714
    5975,     547,     548,    1370,    1379
    5976,     165,     549,     158,    1058
    5977,     225,    1432,     548,     547
    5978,     225,     548,    1432,     223
    5979,      51,      97,      94,     103
    5980,     165,     167,     158,     549
    5981,     343,     668,     351,    1120
    5982,    1609,     676,    1429,     680
    5983,     313,    1453,    1217,    1831
    5984,     649,    1141,    1829,    1831
    5985,    1419,    1418,     973,    1217
    5986,     552,     860,    1415,    1413
    5987,    1755,     936,    1409,     944
    5988,    1125,     313,    1217,    1764
    5989,     913,     911,    1406,    1165
    5990,     679,     944,     941,     575
    5991,     819,     336,     341,     349
    5992,    1375,    1307,    1365,    1057
    5993,     306,     308,     307,     573
    5994,     635,    1596,     495,    1524
    5995,     682,    1211,     779,     776
    5996,     681,    1081,     683,    1830
    5997,    1014,    1012,    1428,    1722
    5998,     336,     337,     352,     343
    5999,    1365,    1057,    1364,    1375
    6000,     576,     579,     740,     680
    6001,    1599,    1788,    1597,    1895
    6002,     642,    1744,     904,    1156
    6003,     639,     645,     642,     641
    6004,     983,     920,    1478,    1156
    6005,     583,      83,     585,     982
    6006,     865,     863,     864,    1108
    6007,     923,    1563,     955,    1138
    6008,      60,    1521,    1724,    1291
    6009,     802,     333,     870,     804
    6010,     802,    1839,     804,     870
    6011,    1893,    1123,    1122,     895
    6012,     923,     870,    1563,    1839
    6013,     671,    1893,    1122,    1725
    6014,     892,    1893,     893,     895
    6015,     521,     525,      20,     531
    6016,    1837,    1533,     892,     894
    6017,     363,     480,     924,     478
    6018,     410,     962,     405,    1484
    6019,     612,    1550,    1615,    1548
    6020,    1237,    1239,    1238,    1483
    6021,     609,    1866,     616,    1718
    6022,     611,     618,     608,     615
    6023,     403,     411,     522,     408
    6024,     525,     531,     526,     665
    6025,       8,     174,     651,     705
    6026,    1746,    1907,    1745,    1446
    6027,     960,     411,    1151,     524
    6028,     278,    1457,    1458,    1470
    6029,     489,    1586,    1104,    1909
    6030,     128,     127,     290,     305
    6031,    1328,    1746,     295,    1437
    6032,     724,     859,     858,    1732
    6033,     445,    1883,    1467,    1285
    6034,    1871,    1849,    1331,    1850
    6035,     910,    1579,     724,    1732
    6036,     410,    1483,    1237,     411
    6037,     286,     902,     295,    1486
    6038,     396,     400,     737,     399
    6039,     932,     933,    1281,     931
    6040,    1279,    1281,    1475,    1869
    6041,     396,     799,     605,     402
    6042,    1245,     543,    1059,    1058
    6043,     903,     278,    1649,    1470
    6044,    1224,     754,     749,    1687
    6045,     439,     235,    1035,     242
    6046,    1003,     257,     784,     782
    6047,     174,     639,      29,      30
    6048,     249,      77,      78,     580
    6049,      63,     581,      64,     591
    6050,     631,      77,     634,     580
    6051,      77,     580,     918,     634
    6052,     470,    1114,      52,    1236
    6053,    1240,    1204,     298,    1729
    6054,    1301,    1132,     327,    1133
    6055,     689,    1650,     692,     691
    6056,     899,     689,    1650,     294
    6057,     689,     294,    1289,    1650
    6058,     294,     899,    1458,    1650
    6059,     300,    1729,    1653,     301
    6060,     326,    1301,    1207,    1132
    6061,     850,     875,    1804,     874
    6062,     853,     851,     508,    1862
    6063,     854,     507,     502,     501
    6064,     760,     507,     597,     596
    6065,     851,    1335,     597,    1862
    6066,     721,    1449,    1743,     905
    6067,     519,     245,     907,     906
    6068,     108,    1314,    1393,     878
    6069,    1200,     899,     689,    1198
    6070,     730,    1314,     271,    1393
    6071,     829,    1514,    1247,     730
    6072,     434,     534,     539,     542
    6073,     899,     600,    1200,     281
    6074,     364,     405,     406,     962
    6075,     435,     725,     781,     850
    6076,    1304,    1348,    1150,    1346
    6077,     619,     623,     622,     530
    6078,     403,     406,     405,     407
    6079,     410,    1559,    1483,    1489
    6080,    1305,    1773,    1767,    1303
    6081,    1348,    1691,    1773,    1304
    6082,     837,     818,    1502,    1357
    6083,     410,     405,     724,    1484
    6084,    1353,     567,     562,    1509
    6085,     724,     405,     859,    1484
    6086,     555,    1188,     709,     303
    6087,     887,     141,     558,     146
    6088,     555,    1188,     141,     554
    6089,     145,    1296,    1187,    1522
    6090,     140,     556,     555,     554
    6091,     432,     377,     852,     384
    6092,     356,    1638,     774,     771
    6093,     299,      68,     774,     298
    6094,     298,      68,    1205,     718
    6095,     298,     718,    1205,    1240
    6096,    1807,    1593,    1337,    1336
    6097,     853,    1863,    1799,    1593
    6098,     698,     853,    1799,    1593
    6099,     300,     301,     298,    1729
    6100,     609,     827,     610,     617
    6101,     358,    1067,    1161,     734
    6102,    1015,     169,     549,    1721
    6103,     495,     161,     882,    1431
    6104,    1657,      68,    1637,      69
    6105,    1657,    1697,    1785,    1738
    6106,    1241,     718,    1205,    1637
    6107,     718,    1205,    1637,      68
    6108,      68,      69,    1163,    1637
    6109,     639,     843,      30,     640
    6110,     645,     643,     639,     642
    6111,    1060,    1042,    1917,    1040
    6112,     247,     905,     245,     904
    6113,     247,     904,     643,     905
    6114,    1572,    1917,    1322,    1712
    6115,     744,    1709,    1062,    1041
    6116,    1898,    1786,    1751,    1497
    6117,    1495,    1786,    1309,    1497
    6118,     644,     247,     905,     245
    6119,    1248,    1294,    1613,    1250
    6120,    1748,    1495,    1749,    1750
    6121,    1748,    1293,    1751,    1294
    6122,     640,     920,     642,    1156
    6123,      40,     623,     935,     311
    6124,      41,     952,    1612,     935
    6125,      41,      32,      42,    1158
    6126,      41,    1612,     952,    1575
    6127,     257,     263,     782,     261
    6128,     400,     399,     255,     737
    6129,     729,     263,     756,    1154
    6130,     555,    1296,     709,    1187
    6131,     128,     196,     574,     163
    6132,     262,     413,     354,     259
    6133,     708,    1512,    1188,    1654
    6134,     756,     261,    1313,    1360
    6135,    1064,     125,      90,     471
    6136,     708,    1255,    1512,    1654
    6137,     503,    1584,      74,     702
    6138,      62,     594,    1921,      74
    6139,     701,      77,     918,    1112
    6140,     920,    1479,    1478,     988
    6141,     260,    1003,     257,     784
    6142,     107,      45,     109,     233
    6143,      60,    1291,    1310,    1725
    6144,     234,     239,     877,    1345
    6145,     782,     261,    1360,    1819
    6146,     104,     733,     106,     139
    6147,     754,    1185,    1687,    1858
    6148,     257,     256,     782,     263
    6149,     658,     655,    1351,    1037
    6150,     414,    1004,     893,    1002
    6151,     751,     753,    1528,     672
    6152,     416,    1087,    1534,    1088
    6153,    1047,    1046,     231,    1611
    6154,     658,     656,     655,    1037
    6155,     658,     657,     898,     897
    6156,     340,    1783,     341,     783
    6157,     756,    1525,    1313,    1908
    6158,     637,    1833,    1438,    1790
    6159,     648,     791,     658,    1407
    6160,      28,     655,     658,     656
    6161,     658,    1464,     896,     791
    6162,     163,     574,     162,     193
    6163,     326,     162,     574,     193
    6164,     574,     183,     128,     164
    6165,     183,     229,     574,     142
    6166,     574,     162,    1132,     228
    6167,     787,    1790,    1477,    1760
    6168,     786,    1438,    1833,    1864
    6169,    1441,     785,     886,     496
    6170,     574,     164,     162,     228
    6171,     574,     126,     142,     564
    6172,     997,    1372,    1834,     914
    6173,     911,     524,    1153,    1410
    6174,     926,    1143,    1689,    1422
    6175,     721,     727,     726,    1743
    6176,     721,     905,     906,    1449
    6177,     221,     794,    1034,     793
    6178,      61,     353,     675,     671
    6179,    1834,     997,    1367,    1590
    6180,     769,     416,    1123,     892
    6181,     415,     672,     241,     353
    6182,     418,     415,     416,    1087
    6183,     386,     416,     418,     415
    6184,     416,     892,    1534,    1123
    6185,     637,    1334,    1788,     578
    6186,    1596,     576,     635,     495
    6187,     169,     549,    1721,    1369
    6188,    1159,    1428,    1727,     676
    6189,     206,    1076,      97,    1538
    6190,     469,    1317,    1258,    1352
    6191,     416,     415,    1872,    1087
    6192,     138,     125,     124,      91
    6193,     470,    1318,    1236,     229
    6194,      46,     201,     110,     210
    6195,     375,     120,     384,     377
    6196,     595,     597,    1099,     598
    6197,     469,    1258,    1317,      52
    6198,     469,      52,    1317,     209
    6199,      54,     209,     468,      52
    6200,     675,    1872,    1528,    1124
    6201,    1048,    1059,    1046,    1792
    6202,     607,     146,     836,     838
    6203,     104,     106,      98,     139
    6204,     504,     512,     510,     508
    6205,     769,    1123,     671,    1893
    6206,     674,    1521,    1291,    1865
    6207,     674,     671,    1865,    1291
    6208,      51,     831,    1114,      97
    6209,     780,    1678,    1545,    1139
    6210,    1232,    1859,    1919,    1677
    6211,     514,     597,     851,    1335
    6212,     506,     854,     507,     502
    6213,     852,     377,     376,     384
    6214,     501,     520,     760,     507
    6215,     851,     520,     507,     597
    6216,     853,    1101,     851,    1862
    6217,    1029,    1747,    1619,    1381
    6218,    1611,     231,    1032,    1698
    6219,     505,     853,     851,     508
    6220,    1033,    1380,    1381,    1611
    6221,     432,     852,     216,     384
    6222,    1047,    1792,    1048,    1046
    6223,     853,    1101,    1337,    1593
    6224,     492,      56,      55,    1469
    6225,     226,    1560,    1509,    1698
    6226,     465,     464,    1436,     463
    6227,    1439,    1183,    1474,    1473
    6228,     227,     226,    1032,     231
    6229,    1011,    1059,     577,    1606
    6230,     464,     467,     546,    1867
    6231,     465,     463,    1455,     462
    6232,     545,     546,    1271,    1704
    6233,    1427,    1600,    1607,    1575
    6234,     545,    1369,     548,     549
    6235,     158,     576,     160,     153
    6236,     544,     547,    1378,     638
    6237,     629,    1817,     628,     767
    6238,     105,     164,     468,     147
    6239,    1040,    1041,    1042,    1917
    6240,     511,     486,    1551,     509
    6241,     126,     574,     183,     128
    6242,     955,     869,     661,     866
    6243,     955,     870,     869,    1563
    6244,     661,     423,     318,     955
    6245,     927,    1860,    1407,     898
    6246,     316,     325,     317,     320
    6247,     320,     317,     969,    1084
    6248,    1059,     577,    1606,    1759
    6249,    1448,     906,     907,    1450
    6250,      62,      63,     219,      78
    6251,    1633,    1630,    1811,    1629
    6252,      30,     654,     582,     843
    6253,     650,    1629,    1630,    1633
    6254,     857,     856,     398,    1616
    6255,     131,     301,     816,    1779
    6256,     264,     267,     276,     265
    6257,    1633,    1630,    1634,    1811
    6258,    1067,    1244,    1243,    1768
    6259,    1244,    1642,    1770,    1711
    6260,    1021,    1037,     497,     286
    6261,     650,     651,    1634,    1175
    6262,      62,      64,      73,    1921
    6263,     485,    1037,     655,      27
    6264,     173,     650,     653,    1050
    6265,    1850,     443,    1851,    1331
    6266,     591,      65,    1471,     633
    6267,     173,     650,    1175,     651
    6268,     876,     509,    1564,    1844
    6269,    1157,    1016,     704,    1017
    6270,    1481,    1037,     655,     485
    6271,     502,     212,     213,     214
    6272,     432,     216,     119,     384
    6273,     900,     278,    1470,     446
    6274,     174,    1157,    1018,    1016
    6275,     447,     933,     444,    1285
    6276,     280,     900,     446,     278
    6277,     899,      24,     903,     601
    6278,      62,      65,    1921,     594
    6279,    1279,    1881,    1482,    1283
    6280,     721,     904,     905,    1743
    6281,    1448,     721,     906,    1449
    6282,    1633,     591,    1471,     633
    6283,    1279,    1482,    1881,    1869
    6284,     674,     673,      61,     203
    6285,    1279,    1475,    1284,    1482
    6286,    1282,    1288,     243,    1286
    6287,     903,    1475,     900,    1470
    6288,     674,    1865,     673,    1508
    6289,     671,    1124,    1865,    1122
    6290,    1521,    1865,    1523,    1291
    6291,     674,     673,    1865,    1124
    6292,     932,    1281,    1280,    1869
    6293,    1281,    1280,    1869,    1279
    6294,    1176,    1179,    1178,    1288
    6295,    1107,     879,     880,    1681
    6296,    1107,    1681,    1703,    1682
    6297,    1176,     706,     243,    1287
    6298,     244,     704,     703,    1676
    6299,    1176,    1055,    1177,    1325
    6300,       2,      25,     775,      27
    6301,     370,     584,    1877,     587
    6302,     368,     518,     370,    1795
    6303,     659,    1681,    1683,    1817
    6304,     625,     765,     764,     767
    6305,    1282,    1280,     900,    1279
    6306,     244,    1053,     704,    1055
    6307,     244,    1053,    1055,    1056
    6308,    1794,     370,    1877,    1812
    6309,     501,     519,     432,     216
    6310,     324,     688,     873,      84
    6311,    1180,    1182,    1474,    1183
    6312,     786,    1181,    1438,    1864
    6313,    1374,     828,    1623,     669
    6314,     244,    1053,    1056,       6
    6315,       7,    1053,       6,      29
    6316,    1034,     789,     793,    1864
    6317,    1057,     490,    1878,    1269
    6318,     577,    1334,    1759,     738
    6319,    1693,     352,     669,     828
    6320,       7,     641,     174,     704
    6321,     338,     227,     828,     562
    6322,     787,    1441,    1477,    1439
    6323,     226,    1032,     231,    1698
    6324,     683,    1080,    1832,    1081
    6325,     433,     513,     595,     520
    6326,    1832,    1083,    1080,    1077
    6327,     828,     352,     669,     338
    6328,    1521,    1508,    1523,    1865
    6329,     220,     225,     227,     226
    6330,     907,    1450,     906,     927
    6331,     286,    1020,    1486,     284
    6332,     284,     286,    1022,     498
    6333,      27,     497,    1037,     286
    6334,    1394,    1586,    1397,    1444
    6335,     498,     487,    1022,    1552
    6336,     489,    1909,     487,    1586
    6337,     499,     653,     652,     847
    6338,    1741,     285,     284,    1395
    6339,    1741,    1430,     285,    1742
    6340,    1746,    1329,    1848,    1907
    6341,     906,    1488,     644,     927
    6342,       1,       5,       2,      25
    6343,     245,     927,     907,     906
    6344,    1746,    1848,    1742,    1745
    6345,     847,    1103,     499,     287
    6346,     497,       4,      27,       9
    6347,     302,     708,     303,     709
    6348,     194,     198,     116,     197
    6349,    1241,    1737,    1736,    1637
    6350,    1525,     270,    1526,    1854
    6351,    1514,     269,     271,     270
    6352,     113,     719,     116,     115
    6353,     113,     137,    1686,     199
    6354,    1027,     270,    1854,    1213
    6355,    1678,    1919,    1884,    1545
    6356,    1232,    1919,    1887,    1884
    6357,    1232,    1919,    1678,    1677
    6358,    1113,    1678,    1232,    1884
    6359,    1113,     534,    1678,    1139
    6360,    1146,     242,     440,    1186
    6361,     418,    1043,    1087,    1092
    6362,     784,     260,    1003,    1004
    6363,     669,      55,      57,    1623
    6364,     669,    1693,    1623,     668
    6365,    1057,    1878,    1311,    1364
    6366,     240,     413,     262,     259
    6367,     511,     510,    1845,     842
    6368,     490,     886,    1878,    1269
    6369,     784,     260,    1004,    1045
    6370,     256,     782,     263,    1312
    6371,     457,    1416,    1421,    1867
    6372,    1436,     464,    1417,    1888
    6373,    1147,    1651,    1208,    1149
    6374,    1857,     821,    1003,    1843
    6375,     783,    1784,    1783,    1624
    6376,     545,    1370,     548,    1369
    6377,     225,    1432,    1374,     223
    6378,     547,     549,     362,     167
    6379,     326,    1207,    1301,    1300
    6380,     770,    1206,    1300,    1640
    6381,    1432,     548,    1553,     223
    6382,    1370,    1553,    1379,     548
    6383,     743,      17,      14,    1712
    6384,     545,     465,    1454,     169
    6385,     167,     545,     547,     549
    6386,     547,    1271,    1379,    1370
    6387,       7,     704,    1016,     703
    6388,    1053,     647,       6,      29
    6389,    1053,     641,     645,      29
    6390,       7,     174,    1016,     704
    6391,     906,     905,     644,    1488
    6392,     358,    1161,     273,     734
    6393,     488,     652,     653,     591
    6394,     472,     848,     850,      86
    6395,     273,    1161,    1162,     734
    6396,    1161,    1243,    1163,    1162
    6397,     293,     449,     448,     561
    6398,    1748,    1293,     823,     734
    6399,     488,     591,     590,     652
    6400,     641,    1054,     645,     986
    6401,     703,    1913,    1676,    1017
    6402,     324,     322,     688,     879
    6403,     289,    1110,    1628,     847
    6404,     244,     704,    1676,    1055
    6405,     704,    1068,    1054,     986
    6406,    1628,    1050,     650,    1630
    6407,     244,    1056,    1055,    1325
    6408,      23,    1176,     243,    1038
    6409,     704,     985,    1924,     986
    6410,     653,     652,     847,    1802
    6411,     653,     591,     652,    1471
    6412,     704,    1068,    1676,    1055
    6413,    1232,    1554,    1886,    1840
    6414,     873,     803,     871,     979
    6415,     871,     873,     321,     803
    6416,     704,    1068,     985,    1017
    6417,    1157,     985,    1479,    1018
    6418,     983,     641,     984,     986
    6419,    1840,     801,    1659,     979
    6420,    1840,     977,    1232,    1554
    6421,     977,    1554,     978,     888
    6422,    1840,    1885,    1659,    1555
    6423,    1840,    1886,    1885,    1555
    6424,      62,      64,      77,      72
    6425,     701,     989,      70,    1112
    6426,     753,     672,    1872,    1528
    6427,     754,    1185,    1532,    1687
    6428,     658,     656,    1464,     791
    6429,     655,    1564,     657,     897
    6430,     655,    1037,    1481,    1351
    6431,    1224,     752,    1227,    1668
    6432,     655,     485,    1844,    1481
    6433,      28,     656,     648,      29
    6434,      28,     485,      30,     843
    6435,     648,     658,     791,     656
    6436,     535,    1113,     780,    1139
    6437,     433,     726,     722,     725
    6438,     535,     723,     513,    1099
    6439,     435,     781,     890,     850
    6440,     822,    1782,     187,      92
    6441,    1086,    1084,    1137,    1115
    6442,     822,     527,     825,    1781
    6443,    1086,     379,     954,    1115
    6444,     822,     187,    1782,    1641
    6445,     180,     822,     181,     187
    6446,     822,    1641,     181,     187
    6447,     669,      57,     668,    1623
    6448,    1694,    1181,    1028,    1695
    6449,    1813,    1180,    1474,    1472
    6450,    1474,    1472,    1815,    1813
    6451,     822,    1298,     179,    1641
    6452,     822,    1298,     825,     179
    6453,     177,     708,     185,     275
    6454,    1059,    1267,    1759,    1606
    6455,    1047,    1754,    1046,    1611
    6456,    1034,    1758,    1756,    1864
    6457,    1273,     827,    1867,     546
    6458,     182,     185,     823,     275
    6459,     717,     302,     716,     710
    6460,     710,    1507,    1762,    1170
    6461,    1591,    1818,    1590,     997
    6462,    1822,    1573,    1540,    1403
    6463,     709,    1187,    1296,    1527
    6464,     716,    1527,     710,     709
    6465,     803,     321,     331,    1106
    6466,     555,    1187,     709,    1188
    6467,     555,     709,     716,     303
    6468,      31,      39,      40,     308
    6469,     682,    1212,    1211,     776
    6470,     928,    1603,    1275,    1141
    6471,    1245,    1267,    1246,    1265
    6472,     708,     303,     709,    1188
    6473,    1022,     286,    1021,     497
    6474,    1039,     658,    1037,     656
    6475,    1722,    1012,    1726,    1252
    6476,      28,     655,      27,     485
    6477,    1037,     497,     485,    1481
    6478,     656,      27,    1037,     775
    6479,    1668,    1674,    1687,    1669
    6480,    1224,     713,    1225,    1675
    6481,    1224,     752,    1043,    1227
    6482,    1880,     740,    1598,    1757
    6483,    1106,     700,    1343,    1347
    6484,    1037,     901,     902,    1480
    6485,     769,     892,    1893,     893
    6486,     354,     259,     414,    1690
    6487,     386,    1093,     414,     260
    6488,     353,     415,     675,     416
    6489,     700,     872,    1706,    1347
    6490,     474,     812,     383,     758
    6491,     578,    1599,    1788,    1597
    6492,    1757,    1880,    1599,    1598
    6493,    1596,    1598,    1597,    1524
    6494,      70,    1576,    1105,      71
    6495,     285,    1444,    1583,    1445
    6496,      62,      76,     219,      74
    6497,      76,     119,     216,     384
    6498,    1741,     285,    1395,    1583
    6499,       5,      24,     243,      26
    6500,     702,      75,      76,     384
    6501,      75,     384,     702,     385
    6502,    1748,     734,    1751,    1293
    6503,     181,     187,    1169,     711
    6504,     185,     181,    1169,     711
    6505,     823,     181,     179,    1293
    6506,     847,    1103,    1802,     652
    6507,     511,     510,     512,    1510
    6508,    1050,    1175,    1883,    1131
    6509,     181,     179,    1293,    1641
    6510,     282,     295,    1328,    1430
    6511,    1331,    1871,    1850,     443
    6512,     288,     441,     443,     446
    6513,    1638,    1297,    1656,    1149
    6514,     771,    1823,    1392,     451
    6515,     298,    1240,    1729,     301
    6516,     300,    1652,    1653,    1729
    6517,     771,    1242,    1823,    1656
    6518,     822,     179,     181,    1641
    6519,    1780,    1653,    1300,    1652
    6520,     182,     823,     181,     179
    6521,     127,     290,     176,     192
    6522,     710,     185,    1490,    1251
    6523,    1574,     424,    1905,    1306
    6524,     423,     995,     424,     346
    6525,     323,     250,     867,     922
    6526,     297,     770,     132,     300
    6527,     995,     998,     381,     380
    6528,     995,    1306,     347,    1905
    6529,     995,     998,    1905,     996
    6530,    1638,    1655,    1639,    1640
    6531,      67,     718,     299,     296
    6532,     300,    1300,    1652,    1640
    6533,     132,    1653,     770,     326
    6534,     995,     346,     347,    1306
    6535,     837,     393,     565,     567
    6536,     939,    1627,     938,     272
    6537,     837,    1357,     565,     393
    6538,    1030,     338,     562,    1032
    6539,    1024,    1341,    1340,     830
    6540,    1024,     830,    1340,    1155
    6541,     830,     834,    1024,    1531
    6542,    1339,    1915,    1535,    1340
    6543,    1258,    1234,    1667,    1317
    6544,     567,    1456,     562,    1509
    6545,     810,    1776,     813,    1777
    6546,     533,     871,     977,     872
    6547,    1568,     982,     981,    1666
    6548,     563,    1456,     567,    1066
    6549,     394,     567,     393,     560
    6550,     493,     492,    1468,    1469
    6551,     544,    1718,     494,    1468
    6552,     156,     492,     225,     638
    6553,     221,    1046,     795,     796
    6554,     612,     884,    1548,     608
    6555,    1353,    1515,    1356,    1434
    6556,     152,     156,     638,     492
    6557,    1032,    1611,    1380,    1033
    6558,     828,    1693,    1515,    1623
    6559,     576,     153,     166,     635
    6560,     961,     909,     953,    1580
    6561,     901,     689,     281,     902
    6562,      41,    1575,      42,    1612
    6563,     951,    1607,    1425,    1728
    6564,     552,    1828,     860,    1577
    6565,     583,     322,     686,      83
    6566,     927,    1488,    1860,    1452
    6567,    1330,     294,    1810,     295
    6568,     295,     279,    1330,     294
    6569,    1628,    1802,    1110,    1466
    6570,     445,    1285,    1050,    1883
    6571,     172,     581,     591,     650
    6572,     283,     499,     500,     287
    6573,     444,    1131,    1285,    1286
    6574,     903,     278,     899,    1649
    6575,     603,    1050,    1131,    1175
    6576,    1328,    1871,    1430,    1849
    6577,    1175,     603,     173,     705
    6578,     500,    1103,    1444,    1445
    6579,     583,     587,     982,     585
    6580,     803,     979,     873,    1347
    6581,     282,     443,    1328,     279
    6582,     901,    1503,    1039,     599
    6583,     583,      87,      83,     686
    6584,     583,     250,     686,     589
    6585,    1871,    1331,    1328,     443
    6586,      26,       2,     280,       3
    6587,    1039,    1464,     656,    1465
    6588,    1110,    1882,    1466,    1802
    6589,     811,      89,     814,     475
    6590,    1775,     980,     810,    1774
    6591,    1568,     587,     982,    1666
    6592,     705,     651,    1019,    1016
    6593,     983,     986,    1157,     641
    6594,    1628,    1050,    1630,    1883
    6595,    1050,    1175,    1630,    1883
    6596,      89,     251,     585,    1569
    6597,      24,     600,     601,     899
    6598,     703,    1676,    1913,    1287
    6599,       6,     647,    1056,     790
    6600,    1628,    1803,    1629,    1802
    6601,    1567,    1568,    1666,     587
    6602,    1288,    1038,    1176,    1179
    6603,     583,     251,     250,     589
    6604,     847,    1103,    1882,    1802
    6605,      65,      63,     488,     844
    6606,     489,    1104,     590,    1909
    6607,     499,    1104,    1103,     652
    6608,     961,    1426,     912,     959
    6609,    1110,     443,     287,     288
    6610,     983,    1157,     986,     985
    6611,      25,     656,      29,       6
    6612,     213,     843,     248,     640
    6613,     489,     844,    1909,     590
    6614,     746,     869,     804,    1876
    6615,     174,     580,    1016,    1018
    6616,     510,    1845,    1585,    1511
    6617,     804,     870,    1839,     869
    6618,     511,     509,    1510,     512
    6619,     505,     851,     507,     508
    6620,     510,     842,    1585,    1845
    6621,     505,    1585,    1584,    1517
    6622,    1720,    1570,    1568,    1567
    6623,    1775,    1776,    1777,    1570
    6624,     804,     801,     802,     333
    6625,     810,     814,    1777,     813
    6626,    1840,     977,    1554,     978
    6627,    1107,    1681,    1499,    1703
    6628,     630,     190,     189,    1491
    6629,     333,    1075,     804,     801
    6630,      80,    1702,     697,    1326
    6631,    1658,     804,    1839,    1875
    6632,    1658,    1659,     801,    1662
    6633,    1658,     802,    1659,    1555
    6634,     763,    1493,    1492,    1494
    6635,     983,    1805,    1801,    1478
    6636,     316,     628,     332,     880
    6637,     960,    1152,    1461,    1153
    6638,     368,    1136,     660,    1320
    6639,    1473,    1474,    1472,    1815
    6640,      10,    1049,      18,    1404
    6641,    1440,    1472,    1816,    1696
    6642,     482,    1404,    1405,    1387
    6643,     482,     481,    1894,    1821
    6644,    1173,    1171,    1894,    1387
    6645,     806,    1051,     808,    1049
    6646,     529,     531,     916,     528
    6647,     912,     911,    1153,    1406
    6648,     344,     346,    1306,     347
    6649,    1065,    1052,     766,    1051
    6650,    1740,    1880,    1739,    1602
    6651,    1094,    1739,     949,    1602
    6652,    1051,    1049,    1405,    1065
    6653,    1095,    1740,    1608,    1275
    6654,     155,     882,     881,     885
    6655,     152,     496,     490,     161
    6656,     759,     757,     694,     473
    6657,     544,    1378,    1718,    1468
    6658,     618,     610,     884,    1524
    6659,     983,     987,    1805,    1478
    6660,    1296,    1187,    1522,    1763
    6661,     145,     556,    1724,    1522
    6662,     759,     694,     946,    1361
    6663,    1361,    1801,    1903,    1478
    6664,    1523,    1922,    1291,    1865
    6665,     701,     947,     988,     919
    6666,     947,     989,    1891,     123
    6667,     947,     123,    1891,     942
    6668,    1832,    1211,    1830,    1210
    6669,    1081,    1080,    1832,    1083
    6670,     919,     947,     988,    1156
    6671,    1361,     947,    1478,    1090
    6672,     947,    1156,    1478,     988
    6673,     139,     716,    1261,     733
    6674,     716,     717,    1170,     990
    6675,     921,     323,     922,     686
    6676,     716,    1527,    1296,    1762
    6677,     487,    1552,    1586,    1797
    6678,    1382,     517,    1571,     369
    6679,     716,    1762,    1296,    1261
    6680,     741,    1322,    1572,     965
    6681,     442,    1882,    1735,    1466
    6682,    1014,     676,    1610,    1727
    6683,     287,    1871,    1882,    1445
    6684,    1014,    1428,    1727,    1722
    6685,    1328,    1331,    1330,    1457
    6686,    1014,     677,    1723,    1610
    6687,    1013,    1014,    1015,    1721
    6688,    1147,    1651,    1923,    1208
    6689,    1147,    1208,    1923,    1652
    6690,    1014,    1723,    1015,    1721
    6691,    1013,    1012,    1014,    1722
    6692,     906,    1452,    1449,     905
    6693,    1448,    1452,    1451,    1449
    6694,     906,    1488,    1452,     905
    6695,     361,     743,     742,     747
    6696,     660,     319,     367,     318
    6697,      17,      15,      16,     868
    6698,     741,     743,    1322,      17
    6699,     743,    1712,      14,      15
    6700,    1514,     269,    1216,    1247
    6701,     743,    1572,    1322,    1712
    6702,     743,    1572,    1712,    1041
    6703,    1041,     743,     744,     747
    6704,      65,      63,     594,      62
    6705,    1857,    1855,    1843,    1003
    6706,     261,    1855,    1892,    1819
    6707,     519,     904,     905,     721
    6708,     489,     498,    1104,    1586
    6709,    1819,     821,    1618,     782
    6710,    1118,    1784,    1843,    1841
    6711,     820,    1120,    1119,    1319
    6712,    1118,    1680,    1784,    1841
    6713,     988,     919,     920,     701
    6714,     375,      81,     383,     120
    6715,     989,     123,     758,     943
    6716,     666,    1376,    1365,    1121
    6717,     701,     123,     119,     989
    6718,     351,     666,    1120,     668
    6719,     218,     582,     654,     843
    6720,     611,     608,    1078,     615
    6721,     989,     123,     943,    1891
    6722,     947,    1891,     989,     988
    6723,     769,     416,     892,     414
    6724,     892,    1123,    1893,     895
    6725,     892,     416,    1093,     414
    6726,     262,     729,     256,     263
    6727,    1093,     414,     260,    1004
    6728,    1093,     414,    1004,     893
    6729,    1326,     697,     373,    1268
    6730,    1702,     538,     697,    1595
    6731,      80,     891,    1702,    1326
    6732,    1326,     699,    1699,    1707
    6733,    1658,    1662,    1664,    1659
    6734,    1326,    1270,      82,    1707
    6735,      79,     472,      86,     848
    6736,      80,     699,    1326,      82
    6737,     235,     242,    1186,    1035
    6738,     653,    1802,    1629,     652
    6739,      45,      49,     353,     241
    6740,     446,     931,    1457,    1470
    6741,    1394,    1586,    1552,    1397
    6742,     995,     996,     381,     998
    6743,     754,    1185,     235,     755
    6744,    1036,    1035,     235,    1226
    6745,     124,     183,     125,     731
    6746,     194,     116,     198,     113
    6747,    1439,    1472,    1440,    1441
    6748,     341,    1111,     768,    1005
    6749,     496,     886,    1441,    1878
    6750,     194,     292,     736,     130
    6751,     187,     992,     993,    1782
    6752,     668,     352,     669,    1693
    6753,     796,    1753,    1058,    1201
    6754,      92,     180,     292,     192
    6755,     187,    1169,     711,     992
    6756,     948,     944,     941,    1530
    6757,     950,     940,    1603,     949
    6758,    1047,    1792,    1793,    1756
    6759,     192,     187,     993,      92
    6760,     822,      92,    1781,    1782
    6761,     181,    1169,     187,    1641
    6762,     519,     919,     433,     119
    6763,     759,     123,     919,     947
    6764,     247,     644,     905,     643
    6765,     640,     641,     642,     920
    6766,    1466,     445,    1628,    1467
    6767,     432,     433,     519,     520
    6768,    1758,     794,    1864,    1034
    6769,    1034,    1048,    1756,    1758
    6770,    1181,     789,    1695,    1864
    6771,     789,    1695,    1864,    1034
    6772,    1034,     789,    1695,    1028
    6773,     162,     228,     230,    1133
    6774,     326,     162,     327,    1132
    6775,     162,     148,     193,     327
    6776,     574,     228,    1132,     564
    6777,    1034,    1033,     789,    1028
    6778,     163,     150,     330,     148
    6779,    1047,    1793,    1620,    1756
    6780,    1029,    1619,    1034,    1033
    6781,     139,     733,     106,     303
    6782,     185,    1490,    1251,    1248
    6783,     162,     149,     148,    1133
    6784,     185,     717,     711,    1169
    6785,     993,     304,     991,     992
    6786,     304,     192,     302,     717
    6787,     302,     711,     185,     717
    6788,    1361,    1090,    1478,    1903
    6789,    1266,     733,     990,     991
    6790,     304,     733,     106,     129
    6791,     232,     236,     117,     241
    6792,     111,     210,    1393,     110
    6793,    1258,    1024,    1340,    1155
    6794,     717,     711,    1169,     992
    6795,     489,     487,    1909,     842
    6796,     865,     875,     874,     864
    6797,    1448,     722,     721,    1449
    6798,     475,     807,      88,    1778
    6799,     946,    1074,     476,    1800
    6800,    1914,    1684,    1485,    1089
    6801,     684,    1189,     776,     861
    6802,     731,    1167,     101,    1671
    6803,      99,     559,      59,     203
    6804,    1413,     773,     552,     860
    6805,    1823,    1639,    1656,    1655
    6806,      51,      95,      97,    1114
    6807,     124,     183,     126,     125
    6808,    1391,    1715,    1708,     448
    6809,     771,    1242,    1656,    1243
    6810,     180,     293,     450,      92
    6811,     183,     731,     184,     125
    6812,     731,     184,     125,     471
    6813,     498,     487,    1552,    1586
    6814,    1857,    1001,    1856,    1003
    6815,    1656,     771,    1639,    1823
    6816,    1394,    1444,    1397,    1583
    6817,    1394,    1583,    1396,    1395
    6818,    1001,     261,    1856,    1908
    6819,     259,     414,    1690,    1002
    6820,     500,    1104,    1444,    1103
    6821,     354,    1001,     259,    1716
    6822,    1857,    1001,     782,     261
    6823,     498,    1586,    1444,    1104
    6824,     487,    1845,    1798,    1797
    6825,     487,    1797,    1586,    1909
    6826,    1328,     295,     279,    1330
    6827,     966,    1216,    1215,    1443
    6828,    1514,    1215,     836,    1216
    6829,    1215,    1216,     269,    1442
    6830,     855,     924,    1274,    1142
    6831,     855,     964,    1062,    1042
    6832,     855,     483,    1062,     964
    6833,     189,     803,    1075,     331
    6834,    1326,    1707,    1699,    1327
    6835,    1326,    1707,    1327,    1270
    6836,     363,     855,     483,     478
    6837,      11,     405,     363,     724
    6838,       5,     705,     603,     706
    6839,    1107,     700,     699,    1703
    6840,    1857,    1855,    1003,    1856
    6841,     319,     322,     659,     628
    6842,     324,     699,      84,      83
    6843,     324,     323,     322,     686
    6844,     324,     323,     871,     321
    6845,     982,    1682,     699,     981
    6846,     699,      83,     982,      82
    6847,    1730,    1735,     442,    1734
    6848,     442,    1734,    1733,    1730
    6849,     192,      92,      93,     292
    6850,    1110,    1466,     445,    1628
    6851,     358,     299,    1161,     774
    6852,     293,      90,     143,    1787
    6853,     315,    1141,    1764,    1073
    6854,    1824,    1408,     936,     929
    6855,     936,    1530,    1755,    1826
    6856,     936,    1755,    1824,    1826
    6857,     293,      92,     527,     450
    6858,     293,     291,     449,     561
    6859,     929,    1420,    1879,    1418
    6860,     293,     448,     450,    1787
    6861,     293,    1787,     527,      90
    6862,     871,     802,    1840,     801
    6863,     610,     884,     608,     618
    6864,    1439,    1440,    1472,    1180
    6865,     871,     873,     979,     872
    6866,     788,    1180,    1439,    1183
    6867,    1439,    1477,    1472,    1441
    6868,     159,     156,     157,     222
    6869,     787,    1438,    1477,    1790
    6870,     983,    1157,    1479,     920
    6871,    1292,    1259,    1508,    1260
    6872,     639,     645,     641,      29
    6873,     174,    1157,     704,     641
    6874,     639,     640,     642,     247
    6875,     640,     642,     247,     904
    6876,    1259,    1789,    1522,    1523
    6877,    1296,    1259,    1261,    1763
    6878,     145,    1259,    1296,    1522
    6879,      29,     174,       7,     641
    6880,    1437,    1289,    1847,    1446
    6881,    1746,    1437,    1329,    1907
    6882,     294,     279,    1458,     278
    6883,     295,    1289,    1810,    1437
    6884,    1328,    1742,    1746,    1329
    6885,     919,     246,    1156,     920
    6886,     641,     986,     704,    1054
    6887,    1147,    1208,    1652,    1729
    6888,    1349,    1767,    1773,    1342
    6889,    1025,    1350,    1339,    1349
    6890,     729,     108,     878,    1154
    6891,    1339,    1349,    1350,    1342
    6892,    1053,     641,     704,    1054
    6893,     162,     149,    1133,    1925
    6894,     162,     230,     149,    1925
    6895,    1460,    1435,    1379,    1553
    6896,     574,     229,     164,     228
    6897,     983,    1479,    1157,     985
    6898,     548,    1368,    1370,    1553
    6899,    1379,    1370,    1271,    1459
    6900,     178,     176,     194,     292
    6901,     871,     923,     323,     978
    6902,     344,     346,     345,     437
    6903,     162,    1925,    1133,     230
    6904,      10,     481,     483,    1423
    6905,     478,     480,      12,     363
    6906,     405,     406,     962,     407
    6907,     363,     859,     364,    1044
    6908,      19,     408,     522,     524
    6909,    1233,     230,     164,    1236
    6910,     147,     162,     230,     149
    6911,     149,    1925,     230,    1235
    6912,     333,     661,     325,     870
    6913,     105,     127,     305,     106
    6914,    1194,    1375,    1377,    1269
    6915,     152,     493,     492,     494
    6916,     155,     885,     612,     884
    6917,     883,    1548,     885,    1196
    6918,     404,     360,     409,     806
    6919,     389,     806,     365,     745
    6920,     364,     365,     855,     964
    6921,       2,     281,     600,     899
    6922,       5,     706,      26,     243
    6923,     868,     743,      17,      15
    6924,     281,     600,    1200,     599
    6925,     446,    1457,     931,    1861
    6926,     442,    1733,    1731,    1730
    6927,    1025,     112,    1026,    1339
    6928,    1305,    1025,    1346,     239
    6929,    1398,     112,    1339,    1024
    6930,    1050,    1883,    1285,    1131
    6931,     445,    1731,    1285,    1467
    6932,     775,     790,     656,       6
    6933,     445,    1050,     444,     289
    6934,     484,     497,     498,    1022
    6935,     706,    1913,    1131,    1287
    6936,     201,      44,    1024,     834
    6937,     651,    1175,    1019,    1634
    6938,     768,     788,    1180,    1440
    6939,     705,    1175,    1131,    1913
    6940,    1157,     641,     986,     704
    6941,     653,    1471,     652,    1629
    6942,     803,    1904,     801,     979
    6943,       5,     706,     244,     703
    6944,    1628,    1802,     847,    1110
    6945,      64,      72,    1390,     632
    6946,     432,     216,     519,     119
    6947,      62,      73,      74,    1921
    6948,     112,    1026,    1339,    1024
    6949,     447,     445,    1285,     444
    6950,      64,    1921,      65,     633
    6951,    1727,     676,    1610,    1159
    6952,     834,    1024,     832,     117
    6953,    1075,    1662,     801,    1904
    6954,     111,     469,    1398,    1519
    6955,     220,    1201,     231,     796
    6956,     740,     577,    1604,    1605
    6957,     155,     154,     495,     882
    6958,     740,     579,     577,    1605
    6959,     154,     884,    1524,     882
    6960,    1011,     577,     579,    1606
    6961,    1048,    1792,    1758,    1759
    6962,     635,    1524,     618,    1608
    6963,     941,    1529,    1601,     949
    6964,     688,    1106,     873,     700
    6965,     739,     740,    1094,     680
    6966,     391,    1323,     424,     866
    6967,     740,    1596,    1598,    1757
    6968,     995,     996,    1905,     347
    6969,     423,     995,     380,     424
    6970,     576,     739,     740,    1095
    6971,    1651,    1655,    1149,    1640
    6972,     740,    1757,     578,    1596
    6973,    1094,     740,    1605,     680
    6974,    1094,     680,    1605,    1601
    6975,     107,     729,     109,     108
    6976,    1074,    1504,    1684,    1685
    6977,     862,    1685,     864,    1505
    6978,     849,     864,     862,    1685
    6979,     563,    1031,    1456,    1066
    6980,     730,     108,    1393,     110
    6981,    1106,     189,     803,    1343
    6982,     237,     752,     753,    1043
    6983,    1203,     714,    1202,    1901
    6984,    1059,    1267,    1792,    1759
    6985,    1245,    1262,    1267,    1265
    6986,     547,    1432,    1379,     638
    6987,     353,     769,     675,     671
    6988,     829,    1514,     836,    1247
    6989,     552,    1413,    1415,     772
    6990,     756,    1525,    1314,    1313
    6991,     924,     363,     855,    1044
    6992,      45,      47,     355,     670
    6993,     742,    1662,     868,    1075
    6994,     871,     321,     801,     803
    6995,    1545,    1140,    1117,     780
    6996,     977,    1808,     872,     979
    6997,      91,     138,     993,     129
    6998,      91,      93,     125,     126
    6999,     106,     124,     105,     127
    7000,     138,     993,     129,     991
    7001,    1741,     285,    1430,     295
    7002,    1430,    1742,    1871,    1445
    7003,      91,      90,    1064,     125
    7004,      91,      93,      90,     125
    7005,     707,    1255,     136,    1512
    7006,     129,     993,     304,     991
    7007,     181,    1641,    1249,    1169
    7008,     717,     992,    1170,     990
    7009,    1161,     734,    1067,    1162
    7010,     822,    1641,    1781,    1298
    7011,     753,    1672,    1528,    1872
    7012,      51,      97,     206,     831
    7013,     717,     992,     993,     711
    7014,    1768,     824,    1244,    1770
    7015,     234,     112,    1025,    1345
    7016,     966,    1222,     836,    1216
    7017,    1276,    1539,     518,    1277
    7018,    1658,     804,     802,    1839
    7019,     368,     516,     517,     369
    7020,     944,     948,    1072,    1755
    7021,    1073,     944,    1072,    1409
    7022,     824,     734,    1768,    1067
    7023,     180,     825,     824,     179
    7024,     357,     358,     824,    1067
    7025,     358,     824,     734,     179
    7026,     824,     825,    1711,    1298
    7027,     871,    1840,     802,     978
    7028,     484,     488,     172,     654
    7029,    1466,    1803,    1467,    1628
    7030,     705,    1016,    1019,    1913
    7031,     631,     651,     580,     634
    7032,     581,     650,     631,     591
    7033,     651,     580,     634,    1019
    7034,    1493,     627,    1492,    1192
    7035,    1633,     631,     650,     591
    7036,      64,    1921,    1390,      73
    7037,     531,    1582,     526,     665
    7038,     625,     765,     767,     766
    7039,     528,     521,     526,     530
    7040,     621,     971,     973,     972
    7041,     529,     914,     917,     915
    7042,     916,     528,     531,    1420
    7043,    1420,    1418,     528,     973
    7044,     917,     911,    1410,     524
    7045,     311,     621,     622,     530
    7046,     526,     973,    1581,    1420
    7047,     623,     913,     311,     530
    7048,     497,    1022,     486,    1476
    7049,    1840,    1659,    1885,     979
    7050,     486,    1476,    1022,    1551
    7051,    1628,    1467,    1883,    1803
    7052,     487,     218,     212,     842
    7053,     486,     876,     485,    1844
    7054,     511,     487,    1510,    1551
    7055,    1630,    1803,    1811,    1629
    7056,    1633,     653,    1629,    1471
    7057,    1633,    1629,    1811,    1471
    7058,     650,    1630,    1050,    1175
    7059,    1889,    1466,    1803,    1467
    7060,    1628,    1883,    1630,    1803
    7061,     484,     486,     497,    1022
    7062,    1521,    1259,    1523,    1508
    7063,    1194,     490,    1057,    1269
    7064,    1296,    1522,    1789,    1763
    7065,    1375,    1365,     666,    1376
    7066,     873,     872,    1347,     979
    7067,    1334,    1604,    1759,    1833
    7068,    1605,    1604,     740,    1757
    7069,     667,    1375,     666,      57
    7070,    1469,      55,     492,    1433
    7071,      56,      57,      58,     667
    7072,    1375,     666,    1377,    1376
    7073,    1392,    1823,    1242,    1645
    7074,    1392,    1242,    1244,    1645
    7075,    1375,      58,    1377,      57
    7076,     975,    1708,     976,    1644
    7077,    1708,     976,    1644,    1391
    7078,     720,    1835,    1714,     971
    7079,     479,    1402,     926,     478
    7080,    1391,     825,     450,    1708
    7081,     521,     619,     371,     477
    7082,    1102,    1827,    1820,     720
    7083,     479,    1402,    1102,    1827
    7084,    1074,    1321,    1684,    1485
    7085,      10,     482,     481,    1404
    7086,     481,    1401,     483,    1710
    7087,     613,     826,    1079,     617
    7088,     452,     683,     454,     456
    7089,     681,    1081,    1829,     649
    7090,     682,     456,     776,     779
    7091,    1616,     857,     817,     398
    7092,    1085,    1332,    1137,    1135
    7093,     817,     398,     846,    1616
    7094,     398,     560,     566,     402
    7095,     398,     560,     817,     566
    7096,     392,    1562,     424,    1323
    7097,     361,     334,     188,     742
    7098,     396,     398,     737,     799
    7099,    1040,     964,     855,    1042
    7100,    1589,    1562,     406,     963
    7101,    1039,     656,     775,    1465
    7102,      84,     540,     700,     872
    7103,     333,     746,     742,     334
    7104,    1061,    1403,    1065,    1383
    7105,      25,      23,     775,       6
    7106,    1245,    1252,    1263,    1265
    7107,    1013,    1253,    1252,    1721
    7108,    1039,    1809,    1465,    1503
    7109,     568,     307,     452,     453
    7110,    1425,    1427,    1575,    1426
    7111,    1039,    1480,    1809,    1071
    7112,      63,      64,     581,      78
    7113,     961,    1728,    1425,    1580
    7114,     910,     421,     429,    1732
    7115,     847,    1110,    1802,    1882
    7116,     498,     286,    1022,     497
    7117,     411,    1152,    1238,    1237
    7118,     524,    1153,    1410,    1151
    7119,     911,    1406,    1166,    1153
    7120,     482,     720,    1102,    1389
    7121,     420,     926,    1143,     924
    7122,    1339,    1535,    1915,    1342
    7123,     581,      64,     591,     631
    7124,     289,    1628,     653,     847
    7125,    1628,    1629,     653,    1802
    7126,     847,    1110,    1882,     287
    7127,     499,     488,     489,    1104
    7128,     796,    1698,    1046,    1753
    7129,     796,     231,    1698,    1201
    7130,     441,     443,    1851,    1850
    7131,     281,     279,     294,     278
    7132,     446,    1457,    1861,    1851
    7133,     900,    1281,    1280,     933
    7134,     576,     739,    1095,     815
    7135,     796,    1046,    1058,    1753
    7136,     796,     224,     220,    1201
    7137,     795,    1046,    1048,    1059
    7138,     527,    1295,      90,    1787
    7139,     144,    1724,     556,     557
    7140,     976,     825,    1708,     527
    7141,     527,    1787,     450,    1708
    7142,     936,    1409,     944,     945
    7143,     952,     961,    1426,     912
    7144,     860,    1577,     459,     552
    7145,     420,    1231,    1144,    1846
    7146,     293,     450,     527,    1787
    7147,    1064,     527,      90,      92
    7148,     822,     825,     527,     450
    7149,     527,    1781,      92,    1896
    7150,     170,    1013,    1014,    1015
    7151,    1527,    1507,    1762,     710
    7152,    1012,    1726,    1428,    1722
    7153,    1012,    1013,    1252,    1722
    7154,     676,      32,      34,      33
    7155,     676,     677,    1610,    1159
    7156,     676,    1428,    1727,    1014
    7157,     286,    1037,     901,     902
    7158,     676,    1609,    1428,    1012
    7159,     676,    1014,    1012,    1428
    7160,    1011,    1013,    1246,    1012
    7161,     681,    1830,    1831,    1829
    7162,     611,     617,     613,    1079
    7163,     134,     113,     199,     137
    7164,      39,     553,     460,    1828
    7165,     459,     860,    1412,    1888
    7166,    1412,    1416,    1888,    1417
    7167,     194,     197,     116,     329
    7168,     194,     163,     196,     197
    7169,     297,     356,     770,    1638
    7170,     938,     937,    1220,    1686
    7171,     185,     717,    1169,    1170
    7172,    1233,    1317,    1900,    1234
    7173,     710,     185,    1251,    1170
    7174,     302,     708,     707,     303
    7175,     264,     266,     275,     267
    7176,     175,     292,     186,     180
    7177,     710,     185,     275,    1490
    7178,     275,     136,    1255,     266
    7179,     275,     266,    1255,     267
    7180,      19,     524,     663,     408
    7181,     442,    1730,    1731,    1467
    7182,    1882,     442,    1735,    1871
    7183,     822,    1641,    1782,    1781
    7184,     997,    1818,     664,    1591
    7185,      93,     143,      90,     125
    7186,     187,    1641,    1169,    1782
    7187,     771,    1656,    1297,    1243
    7188,     264,     272,     266,     265
    7189,     664,    1822,    1818,    1403
    7190,     574,     228,     564,     142
    7191,     966,     840,     887,     839
    7192,     664,    1573,    1822,    1403
    7193,     663,     408,    1411,    1399
    7194,    1320,     437,     438,     660
    7195,    1012,    1428,    1726,    1246
    7196,    1726,    1252,    1246,    1265
    7197,     662,    1399,    1573,    1278
    7198,     822,     450,     527,      92
    7199,    1392,     824,    1244,    1067
    7200,    1392,     824,    1711,    1244
    7201,    1391,    1644,    1708,    1715
    7202,      67,     358,     299,     273
    7203,    1392,    1244,     771,    1067
    7204,     370,     584,    1795,    1877
    7205,     420,    1144,    1143,    1846
    7206,     921,     320,     323,     686
    7207,     995,    1905,     998,     380
    7208,    1392,    1645,    1715,    1823
    7209,    1391,     825,    1708,     976
    7210,     527,     976,     825,    1781
    7211,    1334,     577,    1604,     578
    7212,     637,     578,    1788,    1597
    7213,     737,    1302,    1035,     845
    7214,    1304,    1303,    1773,    1305
    7215,     737,    1616,    1691,     846
    7216,    1616,     398,     846,     737
    7217,     737,     398,     846,     845
    7218,     482,     720,    1587,     665
    7219,     624,    1423,    1709,    1561
    7220,     805,     662,     366,    1061
    7221,     481,    1404,    1171,    1423
    7222,     137,    1686,     199,    1513
    7223,     137,     136,     266,    1299
    7224,     195,     266,     137,     136
    7225,     170,     680,     676,     579
    7226,      31,      36,      32,      38
    7227,     813,     956,    1130,    1547
    7228,     680,     579,    1609,     676
    7229,      41,      32,    1158,      38
    7230,     515,    1539,     518,     517
    7231,     370,     516,    1812,    1794
    7232,     677,      32,      38,    1159
    7233,    1577,     459,     552,     460
    7234,     685,    1212,     776,    1190
    7235,     676,      32,    1159,      34
    7236,     936,    1826,     935,    1530
    7237,     658,     897,     896,    1351
    7238,      31,      35,      33,      32
    7239,     648,     791,    1407,     646
    7240,     648,    1407,     644,     646
    7241,     854,    1564,     506,    1145
    7242,    1902,     898,     896,    1407
    7243,     655,     897,    1351,    1481
    7244,      35,      36,      37,     678
    7245,      38,    1159,    1160,     677
    7246,    1924,     986,     985,     987
    7247,     952,    1406,     913,     912
    7248,      40,     935,      41,     679
    7249,     952,     912,    1426,    1406
    7250,     623,     952,     913,     912
    7251,     623,     961,     952,     912
    7252,     344,     437,     345,    1400
    7253,    1267,    1262,    1245,    1059
    7254,    1792,    1262,    1754,    1793
    7255,     411,     408,    1713,    1151
    7256,     412,    1489,     411,    1713
    7257,     960,    1153,     524,    1151
    7258,    1237,    1483,    1484,    1239
    7259,    1415,     552,     427,    1825
    7260,    1920,    1168,    1520,    1167
    7261,     426,     420,     620,     425
    7262,     550,     427,     553,     908
    7263,     422,    1231,     420,    1846
    7264,     458,     314,     550,     553
    7265,      40,     623,     622,     953
    7266,     158,    1058,     224,     795
    7267,      39,      36,    1578,    1577
    7268,      39,     553,    1728,     953
    7269,     908,     553,     953,    1728
    7270,    1897,    1879,    1408,    1824
    7271,     322,     879,     659,     880
    7272,    1501,     835,    1096,     799
    7273,      39,    1578,      38,    1717
    7274,    1086,     999,    1137,    1138
    7275,     375,     382,     374,     385
    7276,     473,     849,     732,     850
    7277,     120,     383,      85,      81
    7278,     118,      85,     383,     474
    7279,     809,    1129,     374,    1128
    7280,     373,     377,     375,     372
    7281,     165,     549,    1015,     169
    7282,    1493,    1193,     765,    1192
    7283,     609,    1866,     827,     617
    7284,     224,     796,     795,    1058
    7285,     481,    1387,    1894,    1171
    7286,     480,     477,     926,     478
    7287,    1245,    1011,    1246,    1267
    7288,     720,    1820,    1389,    1714
    7289,     999,     994,    1086,     379
    7290,     158,     167,     153,     362
    7291,     223,    1201,     224,     548
    7292,     379,     999,     381,    1115
    7293,      60,    1724,     144,    1310
    7294,     145,    1522,    1521,    1259
    7295,     422,     425,     428,    1846
    7296,     145,     555,    1187,    1296
    7297,    1521,    1291,    1523,    1724
    7298,     180,     822,     179,     181
    7299,    1392,     771,    1244,    1242
    7300,     920,    1479,     918,    1018
    7301,    1037,    1480,     902,    1021
    7302,     580,    1019,    1016,    1018
    7303,     642,     984,     641,     645
    7304,     983,     920,     642,     641
    7305,     722,    1449,    1117,     727
    7306,     122,    1105,      75,     989
    7307,     215,      78,      63,     582
    7308,     651,     580,    1019,    1016
    7309,     609,     617,     616,    1866
    7310,     165,     169,     167,     549
    7311,     617,    1866,    1679,    1079
    7312,    1245,     543,    1013,    1011
    7313,     611,     617,    1079,     616
    7314,     617,     616,    1866,    1079
    7315,    1013,    1014,    1721,    1722
    7316,    1829,    1275,     649,    1082
    7317,     578,    1604,    1788,    1757
    7318,     609,     616,    1550,    1718
    7319,     350,     222,     491,     227
    7320,     680,    1601,    1529,    1429
    7321,     497,    1476,     486,    1844
    7322,     213,     216,      78,     246
    7323,     281,     295,     902,     294
    7324,     487,    1798,    1845,    1510
    7325,     657,     898,     927,    1407
    7326,       7,     244,       6,    1053
    7327,     655,     876,    1844,     485
    7328,     116,     329,     816,     719
    7329,     163,     147,     148,     162
    7330,    1761,    1527,    1507,    1762
    7331,    1053,     645,     641,    1054
    7332,     157,     786,     793,     789
    7333,      30,     174,       7,      29
    7334,    1176,     703,    1287,    1676
    7335,    1053,      29,     645,     647
    7336,     658,     655,     657,     897
    7337,     621,     971,     477,     973
    7338,     485,     655,     876,      28
    7339,     704,     244,       7,    1053
    7340,     281,      27,    1037,     286
    7341,      13,     366,      22,      10
    7342,     245,     247,     248,     644
    7343,    1176,    1676,    1177,    1055
    7344,     737,     400,     799,    1035
    7345,     413,     769,     414,     416
    7346,    1000,    1854,    1525,    1908
    7347,    1259,     139,    1292,     145
    7348,     236,      44,     205,     832
    7349,     117,     832,    1023,    1026
    7350,     413,     354,     769,     670
    7351,     416,    1534,    1087,    1872
    7352,     756,    1154,     263,    1360
    7353,     751,    1256,     748,     204
    7354,     354,    1690,     769,     670
    7355,     769,     416,     675,    1123
    7356,     326,    1126,    1132,    1207
    7357,    1126,     561,     291,     564
    7358,     129,     304,     993,     192
    7359,     326,    1126,     574,    1132
    7360,     198,     199,     113,     114
    7361,     232,    1023,     755,     242
    7362,    1398,    1339,     112,    1350
    7363,     109,      46,     110,     730
    7364,     111,     210,     469,     211
    7365,     107,     729,     108,     112
    7366,     257,     240,     258,     238
    7367,      12,     479,    1102,     720
    7368,    1305,    1349,    1773,    1346
    7369,     477,     973,     971,     526
    7370,    1172,    1404,    1171,    1387
    7371,     997,    1372,    1371,    1818
    7372,     917,    1410,    1367,    1591
    7373,     926,     478,    1402,    1142
    7374,     619,     622,     623,     909
    7375,     914,     915,     916,    1588
    7376,     551,     684,     456,     861
    7377,     961,    1575,    1425,     951
    7378,      13,      18,      21,     665
    7379,     525,     371,      13,      12
    7380,     403,     344,     412,     408
    7381,     408,    1713,    1411,    1399
    7382,     657,     927,     644,    1407
    7383,    1040,     963,    1322,    1917
    7384,    1040,     964,    1572,     965
    7385,     744,    1041,     964,    1572
    7386,     745,     483,     744,    1709
    7387,    1562,     406,     963,     965
    7388,     407,    1574,    1562,    1589
    7389,     333,     870,     746,     661
    7390,     970,     926,     479,    1689
    7391,     741,     743,    1572,    1322
    7392,     955,    1563,     994,    1138
    7393,     741,     391,     742,      17
    7394,      39,     951,    1728,    1717
    7395,     960,    1153,     911,     524
    7396,     529,     930,     310,     916
    7397,     306,     315,     573,     313
    7398,    1714,    1835,    1384,     971
    7399,     930,    1165,     913,     935
    7400,     917,     914,    1367,     915
    7401,     400,     440,    1035,     737
    7402,     440,    1035,    1302,    1186
    7403,     418,    1091,    1092,    1088
    7404,     417,     418,    1093,    1010
    7405,     312,     944,     575,     945
    7406,     945,    1073,    1764,    1409
    7407,      41,      42,     935,    1612
    7408,      31,     679,      41,      42
    7409,     619,     421,     426,     909
    7410,     910,    1732,     724,     858
    7411,    1230,    1229,    1144,    1274
    7412,    1837,    1838,    1010,    1088
    7413,    1044,    1229,    1060,    1274
    7414,     926,    1143,     924,    1142
    7415,     855,     924,    1044,    1274
    7416,     855,    1063,     478,    1142
    7417,     480,     926,     420,     924
    7418,    1224,     235,    1858,    1226
    7419,    1093,     893,    1004,     894
    7420,     418,     798,    1092,    1091
    7421,     798,    1006,    1363,    1091
    7422,    1872,     675,     672,     415
    7423,     177,     178,     176,     136
    7424,    1064,      90,    1295,     471
    7425,     333,     870,     325,     321
    7426,     977,    1808,    1859,    1677
    7427,      80,      83,     699,      82
    7428,     888,     533,     977,    1109
    7429,    1109,    1887,    1232,    1554
    7430,     700,    1347,    1706,    1344
    7431,     476,    1504,     889,    1546
    7432,     373,     383,     375,      81
    7433,     730,     756,    1314,     108
    7434,    1521,    1292,    1259,    1508
    7435,     203,     204,    1257,     673
    7436,     559,     203,    1257,    1292
    7437,     341,    1617,     348,    1111
    7438,     716,    1261,     990,    1762
    7439,      59,    1521,     145,     144
    7440,      48,     206,     200,      51
    7441,      51,     202,      52,    1114
    7442,    1258,      52,    1234,    1317
    7443,     749,    1670,     751,     752
    7444,     202,    1024,    1155,     830
    7445,     111,     211,     469,    1519
    7446,     201,    1258,    1398,     469
    7447,     712,    1225,     715,    1901
    7448,     111,    1398,     112,    1519
    7449,      99,      51,     103,     206
    7450,     678,    1723,     677,    1578
    7451,      31,      34,     679,      42
    7452,      39,     460,      36,    1577
    7453,     568,     573,     572,     649
    7454,     464,     463,    1888,    1436
    7455,     455,     461,     463,     457
    7456,     165,     543,    1015,    1058
    7457,    1095,     815,    1275,    1608
    7458,    1014,     678,    1723,     677
    7459,     463,     457,    1416,    1888
    7460,    1029,    1028,    1695,    1694
    7461,     545,     547,     548,    1370
    7462,     676,    1429,      33,      34
    7463,    1565,    1006,    1097,    1005
    7464,     679,     935,      42,    1530
    7465,     458,     453,     314,     553
    7466,     312,     575,     679,     308
    7467,    1073,     940,    1072,     944
    7468,     949,     940,    1603,     928
    7469,     740,    1602,    1880,    1095
    7470,     458,     552,     459,     460
    7471,     679,    1530,    1529,     941
    7472,     805,    1382,     368,    1127
    7473,      39,      38,     951,    1717
    7474,     459,     457,    1412,     773
    7475,     553,     460,    1828,     552
    7476,     307,     458,     453,     314
    7477,      54,     146,     106,     305
    7478,     304,     733,     129,     991
    7479,     124,     129,     100,     138
    7480,     135,     967,     137,     199
    7481,      59,     145,    1521,    1292
    7482,     139,    1261,    1296,    1259
    7483,     124,     104,     129,     106
    7484,     887,     305,     135,     141
    7485,      48,      53,      99,      51
    7486,      54,     146,     305,     839
    7487,      60,    1725,     671,    1291
    7488,     569,     572,     928,     571
    7489,     576,     168,     680,     739
    7490,     614,     571,     815,    1082
    7491,     611,     614,     617,     610
    7492,     826,    1079,    1679,    1080
    7493,    1081,    1083,    1830,    1829
    7494,     683,     779,    1211,    1080
    7495,     961,     951,    1425,    1728
    7496,     456,     454,    1421,     779
    7497,     461,     678,     462,     169
    7498,     636,     794,     786,    1334
    7499,      39,      36,      38,    1578
    7500,     167,     153,     362,     544
    7501,     460,     552,    1577,    1828
    7502,     576,     680,     168,     579
    7503,     521,      20,     529,     531
    7504,    1580,     953,     908,     909
    7505,      41,     952,     951,    1575
    7506,    1005,    1006,    1111,    1565
    7507,      40,     935,     623,     952
    7508,     521,     525,     371,      20
    7509,     410,     412,     407,    1487
    7510,     306,     621,     530,     973
    7511,     309,     682,     685,     313
    7512,     681,    1830,     683,    1211
    7513,     945,     315,    1125,    1764
    7514,     908,     421,     909,     426
    7515,     916,    1879,     930,     929
    7516,    1455,     460,    1577,      36
    7517,     613,    1081,    1083,    1080
    7518,    1030,     338,     222,     768
    7519,     826,    1679,     454,     779
    7520,     739,    1095,     815,     571
    7521,     570,     466,     452,     614
    7522,    1275,     649,    1082,     571
    7523,    1702,    1326,    1327,     697
    7524,     752,     754,     749,    1224
    7525,    1224,    1858,     754,    1687
    7526,     236,     672,     751,     204
    7527,     236,      44,      49,     205
    7528,    1043,     753,     415,    1087
    7529,     237,     752,    1043,     235
    7530,    1619,    1381,    1621,    1620
    7531,    1695,    1047,    1620,    1756
    7532,    1619,    1611,    1033,    1381
    7533,    1619,    1621,    1381,    1747
    7534,    1029,    1034,    1619,    1695
    7535,    1097,    1694,    1029,    1366
    7536,     315,     568,     573,     572
    7537,    1125,     313,     973,    1217
    7538,     461,      37,     466,     454
    7539,    1095,    1740,    1880,    1598
    7540,     573,     649,    1831,    1141
    7541,     541,    1113,     534,    1677
    7542,     431,     434,      81,      86
    7543,     853,    1337,    1862,    1863
    7544,     120,     432,     377,     436
    7545,     891,     538,    1705,    1706
    7546,     977,     541,     872,    1808
    7547,    1840,    1232,     977,    1859
    7548,     434,      80,     540,     538
    7549,    1568,    1775,    1774,     980
    7550,     822,     527,    1781,      92
    7551,    1147,     300,    1638,     298
    7552,     192,     304,     993,     717
    7553,     175,     187,     181,     711
    7554,     357,     130,     449,     291
    7555,     938,    1221,     939,     115
    7556,     133,    1126,     193,     326
    7557,     774,      69,    1163,      68
    7558,     771,     774,    1067,    1243
    7559,     770,    1638,     449,    1206
    7560,     304,     717,     990,     992
    7561,     339,     135,     305,     197
    7562,     716,     990,    1170,    1762
    7563,     841,     141,     303,    1188
    7564,     710,     185,    1170,     717
    7565,     135,     841,     707,     967
    7566,     194,     196,     736,     176
    7567,     708,     275,    1255,    1490
    7568,    1255,     708,     707,     275
    7569,     349,    1696,    1359,    1311
    7570,     335,    1005,     606,     341
    7571,    1111,    1009,    1008,    1814
    7572,    1111,    1182,    1565,    1814
    7573,     397,    1319,     778,    1663
    7574,     761,    1311,    1878,    1696
    7575,    1006,    1362,    1009,    1565
    7576,     394,     393,     567,     562
    7577,    1560,    1373,    1509,    1356
    7578,     152,     161,     157,     496
    7579,     158,     224,    1058,     549
    7580,    1432,     223,    1553,    1560
    7581,     388,     257,     238,     254
    7582,    1030,    1029,    1033,    1031
    7583,     606,     798,     417,    1010
    7584,     232,     117,     832,    1023
    7585,     335,     797,     606,    1005
    7586,     797,    1098,     563,    1096
    7587,     783,    1624,    1358,    1784
    7588,    1118,    1784,     821,    1843
    7589,     260,     259,     257,    1003
    7590,    1007,    1010,    1838,    1009
    7591,    1783,    1624,    1784,    1359
    7592,     399,     398,     856,     737
    7593,     737,     856,    1616,     398
    7594,     357,     771,    1392,     451
    7595,     134,     178,     195,     136
    7596,     293,     180,     292,      92
    7597,      54,      52,     468,     470
    7598,    1702,    1594,     697,    1327
    7599,     130,    1126,     770,     449
    7600,      24,      23,     604,     792
    7601,    1200,     901,    1503,    1071
    7602,     775,    1465,     656,     790
    7603,     295,     284,     282,     286
    7604,       8,       3,       5,     705
    7605,       6,     790,      29,     647
    7606,     280,     279,     446,     288
    7607,     600,    1199,    1200,     602
    7608,     689,     281,     902,     294
    7609,    1198,     689,    1650,     899
    7610,     440,    1035,     737,    1302
    7611,     417,     401,     258,     418
    7612,    1146,     737,    1303,    1302
    7613,    1305,    1026,    1146,    1184
    7614,     235,    1035,    1186,    1226
    7615,    1336,     697,     537,    1595
    7616,      48,      46,     201,      44
    7617,     354,    1386,    1000,    1716
    7618,      61,      60,     671,     674
    7619,    1026,     832,    1531,    1024
    7620,     236,     749,     752,     754
    7621,     754,    1858,     235,    1185
    7622,     235,     755,    1186,     242
    7623,    1524,     610,     884,     154
    7624,     576,     815,    1095,    1596
    7625,    1095,     740,    1596,    1598
    7626,    1046,    1698,     231,    1611
    7627,     635,     815,    1608,     618
    7628,    1059,    1792,    1267,    1262
    7629,     493,      56,     492,    1469
    7630,     794,     786,    1334,    1833
    7631,     436,     372,     373,     697
    7632,     946,     947,    1090,     942
    7633,     759,     693,     726,     694
    7634,    1027,    1213,     838,    1214
    7635,     355,     670,    1310,    1386
    7636,     111,    1519,     112,     878
    7637,      51,      48,      53,     202
    7638,     206,     103,    1538,      97
    7639,     236,     751,     749,     748
    7640,    1024,    1531,    1341,     830
    7641,     202,    1258,    1155,    1024
    7642,     201,     202,    1024,    1258
    7643,    1439,    1183,    1180,    1474
    7644,    1182,    1181,    1180,    1028
    7645,    1111,    1814,    1180,    1182
    7646,    1617,    1696,    1440,    1816
    7647,    1617,     348,    1359,    1783
    7648,    1593,    1101,    1336,     698
    7649,     788,    1181,    1183,    1438
    7650,     225,    1374,     492,     387
    7651,     262,    1001,    1000,     756
    7652,      45,     354,     670,     355
    7653,    1027,    1525,    1854,     270
    7654,     607,     146,     208,     836
    7655,    1525,    1908,    1526,    1313
    7656,     268,    1526,     271,     270
    7657,    1526,     271,     270,    1525
    7658,     569,    1094,     941,     680
    7659,     635,    1596,    1524,    1608
    7660,     570,     614,     571,     815
    7661,     740,    1757,    1602,    1605
    7662,    1596,     495,    1524,    1597
    7663,    1245,    1058,    1263,    1253
    7664,    1095,    1596,     815,    1608
    7665,     576,     578,     740,     577
    7666,     216,     701,      78,     246
    7667,    1448,     595,     907,     721
    7668,     504,     511,     510,     512
    7669,     214,     219,     503,     217
    7670,     504,     508,     507,     512
    7671,     581,     651,     631,     650
    7672,     746,     870,     869,     661
    7673,      84,     688,     873,     700
    7674,     629,     764,    1681,    1817
    7675,     319,     367,     628,     659
    7676,    1702,    1595,     697,    1594
    7677,     629,     767,     764,    1817
    7678,    1382,     368,     517,     369
    7679,    1232,    1919,    1859,    1886
    7680,    1840,    1232,    1859,    1886
    7681,     541,     540,     872,    1808
    7682,     436,      81,      80,     373
    7683,    1232,    1884,    1678,    1919
    7684,     757,     474,     758,     807
    7685,     919,     904,     693,    1156
    7686,    1074,    1485,     694,    1321
    7687,    1074,     732,    1321,     694
    7688,    1361,    1903,    1485,    1089
    7689,     383,      85,      81,     811
    7690,     621,     970,     620,     926
    7691,     621,     313,     972,     973
    7692,     307,     573,     681,     313
    7693,     682,     776,     684,     685
    7694,     926,    1142,     924,     478
    7695,     313,    1831,    1764,     573
    7696,     681,     313,    1831,    1453
    7697,     621,     972,     970,     971
    7698,     972,     313,    1217,     973
    7699,     972,     973,    1217,    1419
    7700,    1217,     313,    1831,    1764
    7701,     459,     861,     457,     773
    7702,     466,     826,     467,     454
    7703,     457,    1416,     773,    1421
    7704,     459,    1888,     463,    1577
    7705,     453,      37,      39,     460
    7706,    1684,    1485,    1089,    1074
    7707,     812,     474,     475,     807
    7708,     374,     373,     383,     375
    7709,     781,     850,    1804,     890
    7710,     538,     540,     542,    1706
    7711,     118,     759,     473,     757
    7712,     850,     472,     473,     849
    7713,     849,    1074,    1685,    1504
    7714,     850,     890,     874,    1804
    7715,     472,     850,     473,     435
    7716,     434,     436,     537,     536
    7717,     946,    1800,     476,     942
    7718,     236,     754,     235,     755
    7719,     111,     108,    1393,     878
    7720,     232,     235,     242,     755
    7721,     832,     834,     833,    1531
    7722,     738,    1048,    1759,    1059
    7723,     434,     537,     539,     536
    7724,     789,    1864,     786,     793
    7725,     637,     495,    1597,    1431
    7726,     637,    1334,     786,    1833
    7727,     578,    1757,    1788,    1599
    7728,     619,     480,     421,     910
    7729,     619,     622,     426,     620
    7730,    1102,     478,    1401,    1402
    7731,     483,     478,    1063,    1401
    7732,      18,     665,     482,    1388
    7733,     808,      22,    1049,    1065
    7734,    1161,      69,    1164,    1163
    7735,     131,     133,     816,     301
    7736,     178,      67,     195,     266
    7737,     356,    1638,     298,     774
    7738,     131,     719,    1779,     816
    7739,     297,     132,     131,     301
    7740,     434,     539,     538,     542
    7741,    1683,    1681,     659,     879
    7742,     140,     607,      50,     838
    7743,     733,     716,     303,     139
    7744,     146,     887,     305,     839
    7745,     145,     144,    1521,    1724
    7746,      48,      99,     206,      51
    7747,      98,     106,     141,     139
    7748,      45,      46,     355,      47
    7749,     607,     829,      46,    1514
    7750,      61,     671,      60,     670
    7751,     721,    1743,    1449,     727
    7752,     583,     585,      83,      87
    7753,     854,     876,     502,     506
    7754,     699,      82,     981,    1707
    7755,     642,     643,     904,    1744
    7756,       8,     705,       5,       7
    7757,     642,    1156,     984,    1744
    7758,     655,    1844,     876,    1564
    7759,     486,     876,    1844,     509
    7760,     655,     876,      28,     657
    7761,     172,     653,     173,     650
    7762,     511,     509,    1551,    1510
    7763,    1429,     676,    1609,    1428
    7764,    1012,    1428,    1246,    1609
    7765,     941,    1529,      33,     680
    7766,     170,     461,     678,      37
    7767,    1073,    1141,     940,     315
    7768,    1094,    1095,    1740,    1602
    7769,      33,     679,      34,    1529
    7770,     137,    1299,     266,     937
    7771,     297,     356,    1638,     298
    7772,    1126,     130,     133,     736
    7773,      83,      87,     687,     686
    7774,     841,     707,    1512,     303
    7775,     198,     339,     330,     197
    7776,     849,     865,     862,     864
    7777,    1609,     680,    1605,     579
    7778,    1117,    1140,     722,     780
    7779,     461,     168,     169,     171
    7780,    1245,    1013,    1252,    1246
    7781,     217,     503,    1584,     594
    7782,     642,     247,     904,     643
    7783,      70,      72,    1112,      71
    7784,     505,     217,     503,    1584
    7785,     520,     501,     519,     432
    7786,     472,     476,      88,     474
    7787,     591,      63,     488,      65
    7788,     289,     847,     287,    1110
    7789,     222,     789,    1034,    1033
    7790,     637,    1833,     786,    1438
    7791,     788,    1438,     786,    1181
    7792,     335,    1030,     797,    1028
    7793,    1029,    1034,    1028,    1033
    7794,     889,     252,      88,    1546
    7795,    1181,    1028,    1695,     789
    7796,    1181,     788,    1180,     789
    7797,     377,     120,      81,     375
    7798,     350,     222,     338,     768
    7799,    1030,    1028,     789,    1033
    7800,     788,    1181,     786,     789
    7801,    1058,     549,    1368,    1253
    7802,     548,     549,    1369,    1368
    7803,     548,    1058,    1368,    1201
    7804,     548,    1719,    1201,    1368
    7805,    1033,     231,    1032,    1611
    7806,     226,     223,    1560,    1719
    7807,     350,     669,     338,     227
    7808,     221,    1046,     796,     231
    7809,     171,     827,     546,     467
    7810,     315,     313,    1764,     573
    7811,     312,     679,     936,     935
    7812,     315,     573,    1764,    1141
    7813,     312,     945,     315,    1125
    7814,     929,    1125,     528,    1418
    7815,     572,     573,    1141,     649
    7816,    1418,     973,    1217,    1125
    7817,     306,    1125,     315,     313
    7818,     312,     944,     936,     679
    7819,    1274,     855,    1042,    1060
    7820,     364,     855,    1060,    1040
    7821,    1044,    1274,     924,    1229
    7822,    1044,     924,     858,    1229
    7823,     477,     720,     971,     479
    7824,      41,      42,     679,     935
    7825,     622,     908,     953,     909
    7826,     913,    1612,     935,    1165
    7827,      37,      39,     460,      36
    7828,     306,     309,     621,     313
    7829,     306,    1125,     312,     315
    7830,     805,    1061,    1382,    1127
    7831,     687,     889,      87,      88
    7832,     553,     622,     908,     953
    7833,      39,     953,    1728,     951
    7834,      40,      41,     935,     952
    7835,     419,     422,    1231,     420
    7836,     925,     421,     858,    1732
    7837,     889,     252,      87,      88
    7838,     910,     421,     909,     429
    7839,     583,     250,      87,     686
    7840,     192,      91,     993,     129
    7841,      93,     293,      90,     143
    7842,    1064,    1520,    1167,     471
    7843,     180,      92,     822,     187
    7844,    1295,    1064,     527,      90
    7845,    1064,    1295,     527,    1896
    7846,     470,     164,     229,    1236
    7847,    1064,     993,     138,    1870
    7848,      54,     470,      95,      52
    7849,     282,       3,     288,     280
    7850,     447,     446,     900,     931
    7851,     705,    1019,     651,    1175
    7852,     933,    1281,     931,     900
    7853,     447,     933,    1731,     934
    7854,     447,     934,    1731,    1861
    7855,     441,    1851,     446,    1861
    7856,     676,    1014,    1610,     677
    7857,     678,      36,    1578,     677
    7858,    1578,     678,     462,      36
    7859,     862,     889,    1506,     253
    7860,     165,    1015,     170,     169
    7861,      37,     466,     168,     461
    7862,     170,    1015,    1014,     678
    7863,    1245,    1252,    1265,    1246
    7864,    1015,    1723,     169,    1721
    7865,     245,     904,     905,     519
    7866,     693,     695,    1156,    1744
    7867,     174,     704,    1157,    1016
    7868,     824,    1769,     179,    1298
    7869,     712,    1225,     799,     713
    7870,     358,     299,     273,    1161
    7871,     165,    1058,     158,     543
    7872,     166,     544,     827,     610
    7873,    1015,    1721,     549,    1253
    7874,    1015,     678,     169,    1723
    7875,    1014,    1015,    1723,     678
    7876,    1245,    1253,    1263,    1252
    7877,    1013,    1015,    1058,    1253
    7878,     978,    1333,     867,    1108
    7879,      86,     435,     533,     890
    7880,     801,    1904,    1662,    1659
    7881,     811,     810,    1775,     980
    7882,     810,    1774,    1128,    1776
    7883,    1010,    1006,    1091,    1009
    7884,     256,    1312,     263,     877
    7885,     386,     414,     259,     260
    7886,     821,     819,    1783,    1784
    7887,    1857,     261,    1819,    1855
    7888,    1857,     782,    1819,     261
    7889,     782,    1618,    1819,    1312
    7890,    1339,    1024,    1341,    1340
    7891,    1398,    1535,    1339,    1350
    7892,    1339,    1767,    1349,    1342
    7893,    1339,    1342,    1915,    1340
    7894,    1263,    1059,    1262,    1046
    7895,     151,     160,     161,     495
    7896,     609,     494,    1718,    1550
    7897,      62,      64,    1921,      65
    7898,     219,      74,     503,     594
    7899,      63,     594,     217,     844
    7900,     248,     648,     657,     644
    7901,      63,     218,     842,     217
    7902,      63,     217,     842,     844
    7903,     842,     844,     217,    1585
    7904,      76,     216,     119,     701
    7905,     139,    1292,     559,    1260
    7906,     139,     145,    1296,     555
    7907,      47,      60,     355,     670
    7908,     138,    1167,     101,     731
    7909,     139,     303,     555,     716
    7910,     164,     230,     162,     228
    7911,      50,     144,     557,    1310
    7912,     140,     838,     557,     558
    7913,     877,     729,    1154,     263
    7914,      59,     674,    1292,    1521
    7915,      45,     241,     353,     413
    7916,     836,     887,    1215,     558
    7917,    1264,     887,    1215,     966
    7918,     838,     558,    1215,    1214
    7919,     606,    1111,    1009,    1008
    7920,      48,     203,      49,     204
    7921,    1514,    1215,     838,     836
    7922,     202,     830,     834,    1024
    7923,      98,     140,     146,     607
    7924,    1541,     206,    1538,    1076
    7925,    1361,     695,     693,     694
    7926,     519,     693,     433,     919
    7927,     757,     123,     943,     758
    7928,    1156,     919,     920,     988
    7929,     246,     904,     919,    1156
    7930,      76,     219,      74,     503
    7931,    1448,     595,     723,     598
    7932,     693,     904,     721,    1743
    7933,     235,    1186,     755,    1185
    7934,    1023,     755,    1186,    1184
    7935,     755,    1023,     832,    1531
    7936,     232,    1146,     238,     239
    7937,    1023,    1184,    1531,     755
    7938,     750,    1532,     755,    1531
    7939,     754,     755,     750,    1532
    7940,     852,     384,     702,     503
    7941,     375,     374,    1129,     385
    7942,     385,     382,      75,     384
    7943,      74,      75,      76,     702
    7944,     374,     373,     372,    1129
    7945,     698,    1593,    1799,     376
    7946,     532,     433,     513,     723
    7947,     505,    1799,     852,     853
    7948,     486,    1022,     487,    1551
    7949,     487,    1909,     842,    1845
    7950,     502,     212,     511,     876
    7951,     876,     212,     511,     486
    7952,     484,     486,    1022,     487
    7953,     577,    1605,     579,    1606
    7954,    1604,     740,    1757,     578
    7955,    1604,     577,    1334,    1759
    7956,    1036,    1092,     798,    1363
    7957,     576,    1596,     740,     578
    7958,    1011,    1606,     579,    1609
    7959,    1011,     579,    1012,    1609
    7960,    1059,    1262,    1046,    1792
    7961,     160,     578,     495,     576
    7962,     166,     815,     635,     610
    7963,     472,      88,     475,     474
    7964,     475,      88,     807,     474
    7965,      89,     475,      88,    1778
    7966,      79,     475,     472,      88
    7967,     783,     388,     821,     784
    7968,     538,      80,    1702,     697
    7969,     583,     686,     322,     320
    7970,     583,     322,     879,     584
    7971,     763,     627,    1491,    1492
    7972,      84,     872,     700,     873
    7973,      79,     811,     475,      89
    7974,     316,     322,     688,     321
    7975,     322,     688,     879,     880
    7976,     891,     538,    1706,     540
    7977,     364,     963,     406,     965
    7978,      11,     724,     371,     522
    7979,     820,    1319,     343,    1120
    7980,     910,     858,     421,    1732
    7981,     480,     926,     924,     478
    7982,    1044,     858,     363,     859
    7983,     371,     910,     724,     858
    7984,     623,     935,     311,     913
    7985,     759,     473,     694,     726
    7986,     757,     476,     473,     474
    7987,     781,     890,     533,     435
    7988,      85,     435,     121,     431
    7989,     434,     436,      81,      80
    7990,     434,     541,     535,     534
    7991,     468,      52,     209,    1317
    7992,     146,     839,     836,     887
    7993,     339,     839,    1223,    1070
    7994,     209,     208,     210,      54
    7995,     829,    1069,     208,     211
    7996,     339,     735,     105,     150
    7997,     826,     683,     779,     454
    7998,     713,    1036,     798,    1363
    7999,     461,      37,     462,     678
    8000,     570,     571,     614,     649
    8001,     614,     571,    1082,     649
    8002,     826,     683,    1081,    1080
    8003,     611,     616,    1079,    1078
    8004,     611,    1615,     616,    1078
    8005,    1109,     781,    1804,     890
    8006,     595,    1099,     723,     598
    8007,     431,     121,     532,     435
    8008,      79,     687,      83,      87
    8009,     780,    1116,    1545,    1884
    8010,     780,    1678,    1884,    1545
    8011,     760,     501,     245,     519
    8012,     701,     246,     119,     919
    8013,     505,     852,    1799,    1584
    8014,     723,    1140,     598,    1099
    8015,     431,     513,     514,     536
    8016,     245,     906,     905,     644
    8017,     214,     505,     217,     503
    8018,     461,     467,     457,     454
    8019,     827,     617,    1866,    1679
    8020,     455,     453,     454,     456
    8021,     683,     454,     456,     779
    8022,     158,     167,     166,     153
    8023,     462,      36,    1455,    1578
    8024,     153,     610,     154,     544
    8025,     457,    1421,     456,     454
    8026,     609,    1550,     616,    1615
    8027,    1061,    1403,     664,    1228
    8028,     762,     767,     628,     369
    8029,     361,     744,     389,     741
    8030,     378,     381,     996,     438
    8031,     746,    1876,     866,     869
    8032,     628,    1817,     659,     369
    8033,     391,     866,    1876,    1323
    8034,     437,     345,    1277,    1320
    8035,     319,     322,     320,     584
    8036,     369,     370,     659,     367
    8037,     344,     412,     408,    1400
    8038,     152,     493,      56,     492
    8039,     226,    1201,    1719,    1698
    8040,     226,    1719,    1201,     223
    8041,     225,     492,    1433,     638
    8042,     738,     794,    1759,    1048
    8043,     152,     153,     154,     494
    8044,     492,     638,    1468,    1433
    8045,    1032,     562,    1380,    1509
    8046,    1373,    1374,     828,    1434
    8047,    1201,     224,     220,     223
    8048,     796,    1753,    1201,    1698
    8049,     220,     224,     156,     225
    8050,      38,     951,    1717,    1607
    8051,      38,     677,    1160,    1578
    8052,      38,    1578,      36,     677
    8053,      40,      38,      41,     951
    8054,    1600,      41,    1158,      38
    8055,      38,    1600,    1160,    1158
    8056,      41,     951,    1607,    1575
    8057,     383,     809,     374,     810
    8058,     250,      87,     889,     252
    8059,     923,     323,     325,     321
    8060,     867,    1108,    1333,     863
    8061,     720,    1714,    1827,    1820
    8062,     720,    1102,    1389,    1820
    8063,     482,    1389,    1102,    1821
    8064,      18,    1049,    1405,    1404
    8065,     526,    1581,     720,    1587
    8066,      12,     720,     482,     665
    8067,     482,     665,    1587,    1388
    8068,      20,      21,     531,     665
    8069,     480,     858,     925,     421
    8070,     967,     137,    1299,     136
    8071,     938,     137,     272,     937
    8072,     199,    1686,     114,    1852
    8073,     134,     195,     137,     136
    8074,     176,     197,     735,     305
    8075,     127,      91,     192,     129
    8076,     318,     378,     423,     346
    8077,    1138,    1086,     955,    1085
    8078,     135,     841,     840,     887
    8079,     197,     198,     339,     135
    8080,     135,     967,     199,     840
    8081,     967,    1513,     199,    1692
    8082,     840,     199,    1661,    1692
    8083,     135,     839,     305,     887
    8084,     840,    1223,     839,    1222
    8085,    1023,     755,     242,    1186
    8086,    1305,    1025,    1026,    1767
    8087,    1025,    1349,    1339,    1767
    8088,    1026,    1339,    1341,    1767
    8089,    1531,    1026,    1341,    1184
    8090,    1531,    1023,     832,    1026
    8091,    1026,    1339,    1024,    1341
    8092,    1146,    1023,     232,     242
    8093,     606,    1009,    1111,    1006
    8094,    1008,    1814,    1632,    1815
    8095,     396,     400,     399,     254
    8096,     349,     348,    1783,    1359
    8097,    1813,    1474,    1180,    1814
    8098,    1334,     578,    1604,    1788
    8099,    1007,    1009,    1838,    1632
    8100,     565,     393,    1693,     352
    8101,     828,    1693,    1623,     669
    8102,     667,      58,    1375,      57
    8103,     761,     348,    1696,    1440
    8104,     794,    1758,     786,    1833
    8105,    1353,     828,     565,    1515
    8106,     491,     156,     387,     227
    8107,      69,    1163,    1772,    1164
    8108,      66,     265,    1766,    1697
    8109,     264,    1766,     273,      66
    8110,     277,    1771,    1737,    1736
    8111,     299,      68,     298,     718
    8112,     774,     298,      68,    1297
    8113,    1495,     273,    1309,     734
    8114,      69,     299,     774,    1161
    8115,    1658,    1664,     868,    1875
    8116,    1572,    1712,    1041,    1917
    8117,    1040,     965,    1322,     963
    8118,     222,     227,    1032,     231
    8119,     404,     389,     806,     365
    8120,     746,    1876,     391,     866
    8121,     742,     743,     868,      15
    8122,     364,     964,    1040,     965
    8123,    1040,     963,    1917,    1060
    8124,     725,     732,     728,     850
    8125,     121,     473,     726,     725
    8126,     432,     431,     514,     436
    8127,     640,    1156,     642,     904
    8128,     520,     760,     507,     597
    8129,     595,     760,     520,     597
    8130,     788,     786,    1438,     787
    8131,    1101,    1337,    1335,    1862
    8132,     372,     697,    1324,    1268
    8133,    1336,    1594,    1807,    1324
    8134,    1336,    1807,    1595,    1338
    8135,     372,    1129,     373,    1268
    8136,    1326,     697,    1268,    1327
    8137,     431,     514,     436,     536
    8138,     734,    1067,    1162,    1768
    8139,     449,     356,     770,     130
    8140,     734,    1769,    1768,    1898
    8141,     734,    1768,    1786,    1898
    8142,     186,      67,     182,     358
    8143,     273,    1164,    1161,      69
    8144,     273,      69,    1766,    1164
    8145,    1161,    1162,    1067,    1243
    8146,     165,     158,     168,     543
    8147,     282,     288,       3,     289
    8148,     681,    1831,     573,     649
    8149,    1094,     740,    1095,    1602
    8150,     740,    1604,     577,     578
    8151,     576,     577,     740,     579
    8152,     614,    1082,     815,     618
    8153,     815,     571,    1275,    1082
    8154,     635,     815,     618,     610
    8155,    1095,     815,     571,    1275
    8156,     171,     546,     827,     544
    8157,     635,    1608,     815,    1596
    8158,     819,    1784,    1680,    1359
    8159,    1307,    1365,    1311,    1680
    8160,     350,     768,     348,     761
    8161,     667,     668,     669,      57
    8162,     388,     396,     254,     400
    8163,     704,     986,    1924,    1068
    8164,     704,    1924,     985,    1068
    8165,     704,     703,    1676,    1017
    8166,    1053,     704,    1055,    1054
    8167,     983,     984,     642,    1156
    8168,       1,       6,       5,      25
    8169,     704,    1068,    1017,    1676
    8170,     119,     989,      76,     701
    8171,    1033,    1030,    1031,    1380
    8172,     563,    1066,    1096,    1031
    8173,     338,    1032,     222,     227
    8174,     335,    1028,     797,    1005
    8175,     394,     402,    1066,     566
    8176,      31,      34,      33,     679
    8177,     676,      33,    1429,     680
    8178,      31,      35,      32,      36
    8179,      35,      37,     170,     678
    8180,      33,    1429,     680,    1529
    8181,     569,      33,      35,     680
    8182,     568,      31,      37,      35
    8183,      37,     460,     462,      36
    8184,     568,     649,     572,     571
    8185,     480,     426,     421,     420
    8186,      18,    1371,     665,    1388
    8187,      10,    1049,    1404,    1423
    8188,     664,    1371,      21,    1228
    8189,      20,     917,     663,     524
    8190,     531,     665,    1371,    1582
    8191,     744,    1572,     964,     965
    8192,     742,     747,      15,     191
    8193,     443,    1882,     287,    1871
    8194,    1046,    1754,    1792,    1262
    8195,     441,    1861,    1731,    1733
    8196,    1046,    1263,    1059,    1058
    8197,    1046,    1058,    1753,    1263
    8198,     152,     491,     156,     492
    8199,     160,     738,    1334,     577
    8200,     796,     231,    1046,    1698
    8201,     795,     738,    1059,    1048
    8202,     375,     377,     384,     376
    8203,    1030,     222,    1033,     789
    8204,    1030,     768,     789,    1028
    8205,     227,     828,     562,    1509
    8206,     227,    1509,    1032,     226
    8207,    1380,    1030,    1031,     562
    8208,    1030,    1032,    1380,    1033
    8209,    1698,    1611,    1380,    1032
    8210,     226,    1032,    1698,    1509
    8211,    1051,    1049,    1423,    1404
    8212,     406,     407,     404,     392
    8213,     518,    1276,     368,     517
    8214,     664,    1371,     997,      21
    8215,    1051,    1052,     808,    1065
    8216,     321,     688,     316,     332
    8217,     982,     587,    1683,    1666
    8218,     888,     848,      86,     890
    8219,     803,     871,     979,     801
    8220,     955,     870,     661,     869
    8221,     335,     768,    1028,    1005
    8222,     606,    1007,     783,    1008
    8223,     820,    1118,    1119,    1120
    8224,     667,     761,     351,    1057
    8225,    1375,    1307,    1057,     351
    8226,     761,    1057,    1878,    1311
    8227,    1813,    1617,    1816,    1008
    8228,     254,     397,     388,    1618
    8229,     741,     392,     391,    1323
    8230,     368,     660,    1127,    1277
    8231,     406,    1562,     407,     392
    8232,     392,     391,    1323,     424
    8233,     741,     744,     965,    1572
    8234,     483,     744,    1709,    1062
    8235,      18,     482,    1405,    1388
    8236,     364,      11,     404,     405
    8237,     368,     805,     660,     367
    8238,     340,     342,     783,     341
    8239,     441,    1850,    1735,    1871
    8240,     157,     222,     768,     789
    8241,     227,     828,    1509,     226
    8242,     667,     490,    1057,    1194
    8243,     490,     161,     496,     886
    8244,     881,     886,     785,     161
    8245,     585,      87,     583,     251
    8246,     250,     922,     253,     867
    8247,     921,    1086,     955,     954
    8248,     583,      83,     982,     879
    8249,     687,     867,     250,     889
    8250,     584,     879,     587,     659
    8251,     871,     321,     923,     802
    8252,    1085,     922,     867,    1135
    8253,    1658,     801,    1075,    1662
    8254,    1500,    1107,    1344,    1343
    8255,    1108,     978,    1554,     888
    8256,     333,     661,     746,     334
    8257,     977,    1232,     541,    1677
    8258,     746,     334,     661,     391
    8259,    1500,     630,    1343,    1491
    8260,     388,     342,     417,     783
    8261,     798,     439,     713,     800
    8262,     233,     256,     262,     729
    8263,     259,    1003,     260,    1002
    8264,     729,    1154,     756,     108
    8265,     257,     262,    1001,     259
    8266,     778,     254,     777,     397
    8267,     414,    1002,     260,    1004
    8268,     686,     320,     323,     322
    8269,     321,    1106,     873,     688
    8270,     322,     628,     880,     659
    8271,     629,     880,     628,    1817
    8272,     441,    1734,    1735,    1850
    8273,    1681,     659,     879,     880
    8274,     880,     628,    1817,     659
    8275,     629,     880,    1817,    1681
    8276,     439,    1035,     440,     242
    8277,     369,    1571,     367,     762
    8278,     737,    1035,     799,     845
    8279,     340,     783,     388,     821
    8280,     342,     336,     337,     335
    8281,     439,     713,    1036,     798
    8282,     397,     395,     778,     254
    8283,     398,     799,     845,     737
    8284,     394,    1066,     563,     567
    8285,     394,     560,     402,     566
    8286,     802,    1839,     923,    1556
    8287,     803,     321,    1106,     873
    8288,     871,     801,    1840,     979
    8289,    1840,     977,     979,    1859
    8290,     533,     872,     541,     540
    8291,     334,     391,     390,     661
    8292,     324,     687,      84,     323
    8293,     872,    1808,     540,    1706
    8294,    1658,     802,    1555,    1839
    8295,     674,    1124,     675,     673
    8296,     671,    1893,    1123,    1122
    8297,     671,    1122,    1922,    1291
    8298,     671,    1922,    1865,    1291
    8299,      45,     233,     262,     109
    8300,     887,     141,     554,     558
    8301,    1192,     765,    1493,     627
    8302,     841,     968,     887,     554
    8303,     966,     839,     836,    1222
    8304,     141,     558,     146,     140
    8305,     966,     967,     840,    1692
    8306,     841,    1512,     707,     967
    8307,    1306,    1574,    1557,    1905
    8308,     344,    1400,     409,     437
    8309,     762,    1052,     766,    1571
    8310,     995,     346,    1306,     424
    8311,    1306,    1574,    1487,    1557
    8312,    1260,    1259,     139,    1292
    8313,     140,     145,     555,     556
    8314,     139,     733,    1261,    1266
    8315,    1296,    1763,    1261,    1762
    8316,    1296,    1259,    1763,    1789
    8317,     383,     813,     810,     374
    8318,     812,     989,     758,     943
    8319,     383,     814,     811,     810
    8320,     810,     813,    1776,    1130
    8321,     385,     384,     376,     375
    8322,     813,     956,     958,    1777
    8323,    1775,     810,     814,    1777
    8324,     813,     957,     956,    1636
    8325,     484,     283,     499,     498
    8326,     443,     441,    1851,     446
    8327,    1328,    1457,     443,    1331
    8328,      27,     497,     485,    1037
    8329,     367,     369,     762,     628
    8330,     333,     742,    1075,     188
*NSET, NSET=willi
    1647,    1197,    1646,    1482,    1733,     934,
     932,    1869,    1848,    1849,    1850,    1734,
     691,     692,    1847,    1907,    1648,    1881,
    1910,    1906,    1330,    1457,    1470,    1458,
    1650,    1810,    1437,    1329,    1331,    1851,
    1861,     931,    1281,    1475,    1649,    1198
*NSET, NSET=fritz
       27, 32, 
*NSET, NSET=heinz
       33, 34